MAPbI3-cubic                            
   1.00000000000000     
    12.7273920064353483    0.0000000000000000    0.0000000000000000
     0.0000000000000000   12.7255557418288170    0.0000000000000000
     0.0000000000000000    0.0000000000000000   12.7253615997762513
   Cs   Pb   Sn   I 
     8     6     2    24
Selective dynamics
Direct
  0.9766847791750664  0.9610533030300914  0.0000000000000000   T   T   T
  0.0188596637105434  0.0371772412755575  0.5000000000000000   T   T   T
  0.9611055367542605  0.4849942297145944  0.0000000000000000   T   T   T
  0.0330830136232620  0.5262124400503936  0.5000000000000000   T   T   T
  0.4669169863767380  0.9737875599496064  0.0000000000000000   T   T   T
  0.5388944632457395  0.0150057702854056  0.5000000000000000   T   T   T
  0.4811403362894566  0.4628227587244425  0.0000000000000000   T   T   T
  0.5233152208249336  0.5389466969699086  0.5000000000000000   T   T   T
  0.2500000000000000  0.2500000000000000  0.2500000000000000   T   T   T
  0.2500000000000000  0.2500000000000000  0.7500000000000000   T   T   T
  0.2500000000000000  0.7500000000000000  0.2500000000000000   T   T   T
  0.2500000000000000  0.7500000000000000  0.7500000000000000   T   T   T
  0.7500000000000000  0.2500000000000000  0.2500000000000000   T   T   T
  0.7500000000000000  0.2500000000000000  0.7500000000000000   T   T   T
  0.7500000000000000  0.7500000000000000  0.2500000000000000   T   T   T
  0.7500000000000000  0.7500000000000000  0.7500000000000000   T   T   T
  0.2152899064314084  0.2995431337039989  0.0000000000000000   T   T   T
  0.2847101085685892  0.2004568662960011  0.5000000000000000   T   T   T
  0.2907047246605927  0.7131485457865381  0.0000000000000000   T   T   T
  0.2092952903394050  0.7868514542134619  0.5000000000000000   T   T   T
  0.7975818811071704  0.2210252215321518  0.0000000000000000   T   T   T
  0.7024181188928296  0.2789747784678482  0.5000000000000000   T   T   T
  0.7209652418981491  0.7818837564898189  0.0000000000000000   T   T   T
  0.7790347581018509  0.7181162435101811  0.5000000000000000   T   T   T
  0.2093815525385025  0.9998870117873153  0.2072583166014255   T   T   T
  0.2093815525385025  0.9998870117873153  0.7927416833985745   T   T   T
  0.2906184624614951  0.5001129882126847  0.2927416833985745   T   T   T
  0.2906184624614951  0.5001129882126847  0.7072583166014255   T   T   T
  0.7896901273159997  0.9975247576038626  0.2829754998043015   T   T   T
  0.7896901273159997  0.9975247576038626  0.7170245001956985   T   T   T
  0.7103098726840003  0.5024752423961374  0.2170245001956985   T   T   T
  0.7103098726840003  0.5024752423961374  0.7829754998043015   T   T   T
  0.9996940091966096  0.2908328144111820  0.2935018692969464   T   T   T
  0.9996940091966096  0.2908328144111820  0.7064981307030536   T   T   T
  0.9973838847715939  0.7106787711476699  0.2157218105816696   T   T   T
  0.9973838847715939  0.7106787711476699  0.7842782044183281   T   T   T
  0.5003059908033904  0.2091672005888157  0.2064981457030513   T   T   T
  0.5003059908033904  0.2091672005888157  0.7935018692969464   T   T   T
  0.5026161152284061  0.7893212288523301  0.2842782044183281   T   T   T
  0.5026161152284061  0.7893212288523301  0.7157217955816719   T   T   T
 
  0.00000000E+00  0.00000000E+00  0.00000000E+00
  0.00000000E+00  0.00000000E+00  0.00000000E+00
  0.00000000E+00  0.00000000E+00  0.00000000E+00
  0.00000000E+00  0.00000000E+00  0.00000000E+00
  0.00000000E+00  0.00000000E+00  0.00000000E+00
  0.00000000E+00  0.00000000E+00  0.00000000E+00
  0.00000000E+00  0.00000000E+00  0.00000000E+00
  0.00000000E+00  0.00000000E+00  0.00000000E+00
  0.00000000E+00  0.00000000E+00  0.00000000E+00
  0.00000000E+00  0.00000000E+00  0.00000000E+00
  0.00000000E+00  0.00000000E+00  0.00000000E+00
  0.00000000E+00  0.00000000E+00  0.00000000E+00
  0.00000000E+00  0.00000000E+00  0.00000000E+00
  0.00000000E+00  0.00000000E+00  0.00000000E+00
  0.00000000E+00  0.00000000E+00  0.00000000E+00
  0.00000000E+00  0.00000000E+00  0.00000000E+00
  0.00000000E+00  0.00000000E+00  0.00000000E+00
  0.00000000E+00  0.00000000E+00  0.00000000E+00
  0.00000000E+00  0.00000000E+00  0.00000000E+00
  0.00000000E+00  0.00000000E+00  0.00000000E+00
  0.00000000E+00  0.00000000E+00  0.00000000E+00
  0.00000000E+00  0.00000000E+00  0.00000000E+00
  0.00000000E+00  0.00000000E+00  0.00000000E+00
  0.00000000E+00  0.00000000E+00  0.00000000E+00
  0.00000000E+00  0.00000000E+00  0.00000000E+00
  0.00000000E+00  0.00000000E+00  0.00000000E+00
  0.00000000E+00  0.00000000E+00  0.00000000E+00
  0.00000000E+00  0.00000000E+00  0.00000000E+00
  0.00000000E+00  0.00000000E+00  0.00000000E+00
  0.00000000E+00  0.00000000E+00  0.00000000E+00
  0.00000000E+00  0.00000000E+00  0.00000000E+00
  0.00000000E+00  0.00000000E+00  0.00000000E+00
  0.00000000E+00  0.00000000E+00  0.00000000E+00
  0.00000000E+00  0.00000000E+00  0.00000000E+00
  0.00000000E+00  0.00000000E+00  0.00000000E+00
  0.00000000E+00  0.00000000E+00  0.00000000E+00
  0.00000000E+00  0.00000000E+00  0.00000000E+00
  0.00000000E+00  0.00000000E+00  0.00000000E+00
  0.00000000E+00  0.00000000E+00  0.00000000E+00
  0.00000000E+00  0.00000000E+00  0.00000000E+00
