MAPbI3-cubic                            
   1.00000000000000     
    12.6633274325824008    0.0000000000000000    0.0000000000000000
     0.0000000000000000   12.6642039886762987    0.0000000000000000
     0.0000000000000000    0.0000000000000000   12.6652639298688676
   Cs   Pb   Sn   I 
     8     4     4    24
Selective dynamics
Direct
 -0.0000000000000000  0.9816718996475318 -0.0000000000000000   T   T   T
 -0.0000000000000000  0.0183281003524711  0.5000000000000000   T   T   T
 -0.0000000000000000  0.4798847378548400 -0.0000000000000000   T   T   T
 -0.0000000000000000  0.5201152621451594  0.5000000000000000   T   T   T
  0.5000000000000000  0.9798847378548406 -0.0000000000000000   T   T   T
  0.5000000000000000  0.0201152621451600  0.5000000000000000   T   T   T
  0.5000000000000000  0.4816718996475283 -0.0000000000000000   T   T   T
  0.5000000000000000  0.5183281003524682  0.5000000000000000   T   T   T
  0.2500000000000000  0.2500000000000000  0.2500000000000000   T   T   T
  0.2500000000000000  0.7500000000000000  0.7500000000000000   T   T   T
  0.7500000000000000  0.2500000000000000  0.7500000000000000   T   T   T
  0.7500000000000000  0.7500000000000000  0.2500000000000000   T   T   T
  0.7500000000000000  0.7500000000000000  0.7500000000000000   T   T   T
  0.2500000000000000  0.2500000000000000  0.7500000000000000   T   T   T
  0.2500000000000000  0.7500000000000000  0.2500000000000000   T   T   T
  0.7500000000000000  0.2500000000000000  0.2500000000000000   T   T   T
  0.2116919064052273  0.2498780347259281  0.9975797985974743   T   T   T
  0.2883081085947693  0.2501219652740708  0.5024202014025257   T   T   T
  0.2883081085947693  0.7498780347259273  0.0024202014025254   T   T   T
  0.2116919064052273  0.7501219652740727  0.4975797985974759   T   T   T
  0.7883081085947702  0.2498780347259281  0.0024202014025254   T   T   T
  0.7116918914052298  0.2501219652740708  0.4975797985974759   T   T   T
  0.7116918914052298  0.7498780347259273  0.9975797985974743   T   T   T
  0.7883081085947702  0.7501219652740727  0.5024202014025257   T   T   T
  0.2061627828611043  0.9975613850162161  0.2495281103490292   T   T   T
  0.2061627828611043  0.0024386149837814  0.7495281103490278   T   T   T
  0.2938372321388925  0.5024386149837839  0.2504718896509703   T   T   T
  0.2938372321388925  0.4975613850162205  0.7504718896509722   T   T   T
  0.7938372321388927  0.0024386149837814  0.2504718896509703   T   T   T
  0.7938372321388927  0.9975613850162161  0.7504718896509722   T   T   T
  0.7061627678611073  0.4975613850162205  0.2495281103490292   T   T   T
  0.7061627678611073  0.5024386149837839  0.7495281103490278   T   T   T
  0.9975488569078609  0.2909783246345060  0.2868470845640006   T   T   T
  0.0024511430921417  0.2909783246345060  0.7131529154360008   T   T   T
  0.0024511430921417  0.7090216753654930  0.2131529304359983   T   T   T
  0.9975488569078609  0.7090216753654930  0.7868470845639992   T   T   T
  0.5024511430921391  0.2090216903654919  0.2131529304359983   T   T   T
  0.4975488569078593  0.2090216903654919  0.7868470845639992   T   T   T
  0.4975488569078593  0.7909783246345070  0.2868470845640006   T   T   T
  0.5024511430921391  0.7909783246345070  0.7131529154360008   T   T   T
 
  0.00000000E+00  0.00000000E+00  0.00000000E+00
  0.00000000E+00  0.00000000E+00  0.00000000E+00
  0.00000000E+00  0.00000000E+00  0.00000000E+00
  0.00000000E+00  0.00000000E+00  0.00000000E+00
  0.00000000E+00  0.00000000E+00  0.00000000E+00
  0.00000000E+00  0.00000000E+00  0.00000000E+00
  0.00000000E+00  0.00000000E+00  0.00000000E+00
  0.00000000E+00  0.00000000E+00  0.00000000E+00
  0.00000000E+00  0.00000000E+00  0.00000000E+00
  0.00000000E+00  0.00000000E+00  0.00000000E+00
  0.00000000E+00  0.00000000E+00  0.00000000E+00
  0.00000000E+00  0.00000000E+00  0.00000000E+00
  0.00000000E+00  0.00000000E+00  0.00000000E+00
  0.00000000E+00  0.00000000E+00  0.00000000E+00
  0.00000000E+00  0.00000000E+00  0.00000000E+00
  0.00000000E+00  0.00000000E+00  0.00000000E+00
  0.00000000E+00  0.00000000E+00  0.00000000E+00
  0.00000000E+00  0.00000000E+00  0.00000000E+00
  0.00000000E+00  0.00000000E+00  0.00000000E+00
  0.00000000E+00  0.00000000E+00  0.00000000E+00
  0.00000000E+00  0.00000000E+00  0.00000000E+00
  0.00000000E+00  0.00000000E+00  0.00000000E+00
  0.00000000E+00  0.00000000E+00  0.00000000E+00
  0.00000000E+00  0.00000000E+00  0.00000000E+00
  0.00000000E+00  0.00000000E+00  0.00000000E+00
  0.00000000E+00  0.00000000E+00  0.00000000E+00
  0.00000000E+00  0.00000000E+00  0.00000000E+00
  0.00000000E+00  0.00000000E+00  0.00000000E+00
  0.00000000E+00  0.00000000E+00  0.00000000E+00
  0.00000000E+00  0.00000000E+00  0.00000000E+00
  0.00000000E+00  0.00000000E+00  0.00000000E+00
  0.00000000E+00  0.00000000E+00  0.00000000E+00
  0.00000000E+00  0.00000000E+00  0.00000000E+00
  0.00000000E+00  0.00000000E+00  0.00000000E+00
  0.00000000E+00  0.00000000E+00  0.00000000E+00
  0.00000000E+00  0.00000000E+00  0.00000000E+00
  0.00000000E+00  0.00000000E+00  0.00000000E+00
  0.00000000E+00  0.00000000E+00  0.00000000E+00
  0.00000000E+00  0.00000000E+00  0.00000000E+00
  0.00000000E+00  0.00000000E+00  0.00000000E+00
