MAPbI3-cubic                            
   1.00000000000000     
    12.6645877547892809    0.0000000000000000    0.0000000000000000
     0.0000000000000000   12.6658479805217130    0.0000000000000000
     0.0000000000000000    0.0000000000000000   12.6715222537481207
   Cs   Pb   Sn   I 
     8     4     4    24
Selective dynamics
Direct
  0.0010357543131678  0.9806519966130106 -0.0000000000000000   T   T   T
  0.9989642456868316  0.0193480033869820  0.5000000000000000   T   T   T
  0.9972773883283288  0.4796923610984016 -0.0000000000000000   T   T   T
  0.0027226116716641  0.5203076389015950  0.5000000000000000   T   T   T
  0.4972773883283375  0.9796923610984050 -0.0000000000000000   T   T   T
  0.5027226116716712  0.0203076389015974  0.5000000000000000   T   T   T
  0.5010357543131684  0.4806519966130182 -0.0000000000000000   T   T   T
  0.4989642456868319  0.5193480033869894  0.5000000000000000   T   T   T
  0.2500000000000000  0.2500000000000000  0.2500000000000000   T   T   T
  0.2500000000000000  0.2500000000000000  0.7500000000000000   T   T   T
  0.7500000000000000  0.7500000000000000  0.2500000000000000   T   T   T
  0.7500000000000000  0.7500000000000000  0.7500000000000000   T   T   T
  0.2500000000000000  0.7500000000000000  0.2500000000000000   T   T   T
  0.2500000000000000  0.7500000000000000  0.7500000000000000   T   T   T
  0.7500000000000000  0.2500000000000000  0.2500000000000000   T   T   T
  0.7500000000000000  0.2500000000000000  0.7500000000000000   T   T   T
  0.2070592970939583  0.2487570609018225 -0.0000000000000000   T   T   T
  0.2929407179060388  0.2512429390981779  0.5000000000000000   T   T   T
  0.2841515228297151  0.7517978523595392 -0.0000000000000000   T   T   T
  0.2158484921702835  0.7482021476404608  0.5000000000000000   T   T   T
  0.7841515228297189  0.2517978523595377 -0.0000000000000000   T   T   T
  0.7158484771702811  0.2482021476404625  0.5000000000000000   T   T   T
  0.7070592820939585  0.7487570609018216 -0.0000000000000000   T   T   T
  0.7929407179060415  0.7512429390981784  0.5000000000000000   T   T   T
  0.2055083140827895  0.9973783294947969  0.2506289195669197   T   T   T
  0.2055083140827895  0.9973783294947969  0.7493710804330794   T   T   T
  0.2944917009172095  0.5026216705052031  0.2493710804330822   T   T   T
  0.2944917009172095  0.5026216705052031  0.7506289195669206   T   T   T
  0.7944917009172087  0.0026216705052082  0.2493710804330822   T   T   T
  0.7944917009172087  0.0026216705052082  0.7506289195669206   T   T   T
  0.7055082990827913  0.4973783294947915  0.2506289195669197   T   T   T
  0.7055082990827913  0.4973783294947915  0.7493710804330794   T   T   T
  0.9975346853321149  0.2911696997024746  0.2868820756593289   T   T   T
  0.9975346853321149  0.2911696997024746  0.7131179243406768   T   T   T
  0.0024653146678873  0.7088303002975265  0.2131179393406691   T   T   T
  0.0024653146678873  0.7088303002975265  0.7868820756593232   T   T   T
  0.5024653146678851  0.2088303152975238  0.2131179393406691   T   T   T
  0.5024653146678851  0.2088303152975238  0.7868820756593232   T   T   T
  0.4975346853321149  0.7911696997024735  0.2868820756593289   T   T   T
  0.4975346853321149  0.7911696997024735  0.7131179243406768   T   T   T
 
  0.00000000E+00  0.00000000E+00  0.00000000E+00
  0.00000000E+00  0.00000000E+00  0.00000000E+00
  0.00000000E+00  0.00000000E+00  0.00000000E+00
  0.00000000E+00  0.00000000E+00  0.00000000E+00
  0.00000000E+00  0.00000000E+00  0.00000000E+00
  0.00000000E+00  0.00000000E+00  0.00000000E+00
  0.00000000E+00  0.00000000E+00  0.00000000E+00
  0.00000000E+00  0.00000000E+00  0.00000000E+00
  0.00000000E+00  0.00000000E+00  0.00000000E+00
  0.00000000E+00  0.00000000E+00  0.00000000E+00
  0.00000000E+00  0.00000000E+00  0.00000000E+00
  0.00000000E+00  0.00000000E+00  0.00000000E+00
  0.00000000E+00  0.00000000E+00  0.00000000E+00
  0.00000000E+00  0.00000000E+00  0.00000000E+00
  0.00000000E+00  0.00000000E+00  0.00000000E+00
  0.00000000E+00  0.00000000E+00  0.00000000E+00
  0.00000000E+00  0.00000000E+00  0.00000000E+00
  0.00000000E+00  0.00000000E+00  0.00000000E+00
  0.00000000E+00  0.00000000E+00  0.00000000E+00
  0.00000000E+00  0.00000000E+00  0.00000000E+00
  0.00000000E+00  0.00000000E+00  0.00000000E+00
  0.00000000E+00  0.00000000E+00  0.00000000E+00
  0.00000000E+00  0.00000000E+00  0.00000000E+00
  0.00000000E+00  0.00000000E+00  0.00000000E+00
  0.00000000E+00  0.00000000E+00  0.00000000E+00
  0.00000000E+00  0.00000000E+00  0.00000000E+00
  0.00000000E+00  0.00000000E+00  0.00000000E+00
  0.00000000E+00  0.00000000E+00  0.00000000E+00
  0.00000000E+00  0.00000000E+00  0.00000000E+00
  0.00000000E+00  0.00000000E+00  0.00000000E+00
  0.00000000E+00  0.00000000E+00  0.00000000E+00
  0.00000000E+00  0.00000000E+00  0.00000000E+00
  0.00000000E+00  0.00000000E+00  0.00000000E+00
  0.00000000E+00  0.00000000E+00  0.00000000E+00
  0.00000000E+00  0.00000000E+00  0.00000000E+00
  0.00000000E+00  0.00000000E+00  0.00000000E+00
  0.00000000E+00  0.00000000E+00  0.00000000E+00
  0.00000000E+00  0.00000000E+00  0.00000000E+00
  0.00000000E+00  0.00000000E+00  0.00000000E+00
  0.00000000E+00  0.00000000E+00  0.00000000E+00
