MAPbI3-cubic                            
   1.00000000000000     
    12.6954465593846919    0.0000000000000000    0.0000000000000000
     0.0000000000000000   12.6943750254011842    0.0000000000000000
     0.0000000000000000    0.0000000000000000   12.6954008488707117
   Cs   Pb   Sn   I 
     8     5     3    24
Selective dynamics
Direct
  0.9989245271731283  0.9793321853704049  0.9990376212523210   T   T   T
  0.9982453816672083  0.0187721005720963  0.5015888190414798   T   T   T
  0.9971188725727053  0.4810706078626903  0.9956400853032901   T   T   T
  0.9985472720789988  0.5222964546172658  0.4998079158224527   T   T   T
  0.5014527279210012  0.9777035453827342  0.0001920841775472   T   T   T
  0.5028811274272947  0.0189293921373094  0.5043599146967099   T   T   T
  0.5017546183327917  0.4812278994279034  0.9984111809585202   T   T   T
  0.5010754728268717  0.5206678146295951  0.5009623787476790   T   T   T
  0.2500000000000000  0.2500000000000000  0.2500000000000000   T   T   T
  0.2500000000000000  0.2500000000000000  0.7500000000000000   T   T   T
  0.2500000000000000  0.7500000000000000  0.2500000000000000   T   T   T
  0.7500000000000000  0.2500000000000000  0.7500000000000000   T   T   T
  0.7500000000000000  0.7500000000000000  0.2500000000000000   T   T   T
  0.7500000000000000  0.7500000000000000  0.7500000000000000   T   T   T
  0.2500000000000000  0.7500000000000000  0.7500000000000000   T   T   T
  0.7500000000000000  0.2500000000000000  0.2500000000000000   T   T   T
  0.2052347731911864  0.2495464263644716  0.9998816314939726   T   T   T
  0.2947652418088111  0.2504535736355282  0.5001183685060274   T   T   T
  0.2864751721876366  0.7506359240557243  0.9973635240746364   T   T   T
  0.2135248428123611  0.7493640759442757  0.5026364759253636   T   T   T
  0.7882804558492527  0.2502446049299504  0.0023371761249046   T   T   T
  0.7117195441507473  0.2497553950700498  0.4976628238750952   T   T   T
  0.7142507741537721  0.7496503850576988  0.9974246623419045   T   T   T
  0.7857492258462279  0.7503496149423012  0.5025753376580955   T   T   T
  0.1992124701130911  0.9998874935269090  0.2506709639455938   T   T   T
  0.2074684340650693  0.9973819321450809  0.7496181384069921   T   T   T
  0.3007875448869068  0.5001125064730910  0.2493290360544062   T   T   T
  0.2925315809349286  0.5026180678549191  0.7503818615930079   T   T   T
  0.7942880314536419  0.0024006474061615  0.2505339429488491   T   T   T
  0.7916278453848233  0.9974545789912586  0.7502526693653198   T   T   T
  0.7057119685463581  0.4975993525938387  0.2494660570511511   T   T   T
  0.7083721546151767  0.5025454210087414  0.7497473306346802   T   T   T
  0.9974230354925845  0.2924885091752910  0.2879087024240126   T   T   T
  0.9999186389139971  0.2919349909657408  0.7098420508213719   T   T   T
  0.9999191803921156  0.7049928541437671  0.2128559094915859   T   T   T
  0.9998239837226016  0.7128526459162241  0.7827794213195309   T   T   T
  0.5025769645074155  0.2075115058247070  0.2120913125759854   T   T   T
  0.5000813610860029  0.2080650240342566  0.7901579491786281   T   T   T
  0.5000808196078844  0.7950071458562329  0.2871441055084119   T   T   T
  0.5001760162773984  0.7871473540837759  0.7172205786804691   T   T   T
 
  0.00000000E+00  0.00000000E+00  0.00000000E+00
  0.00000000E+00  0.00000000E+00  0.00000000E+00
  0.00000000E+00  0.00000000E+00  0.00000000E+00
  0.00000000E+00  0.00000000E+00  0.00000000E+00
  0.00000000E+00  0.00000000E+00  0.00000000E+00
  0.00000000E+00  0.00000000E+00  0.00000000E+00
  0.00000000E+00  0.00000000E+00  0.00000000E+00
  0.00000000E+00  0.00000000E+00  0.00000000E+00
  0.00000000E+00  0.00000000E+00  0.00000000E+00
  0.00000000E+00  0.00000000E+00  0.00000000E+00
  0.00000000E+00  0.00000000E+00  0.00000000E+00
  0.00000000E+00  0.00000000E+00  0.00000000E+00
  0.00000000E+00  0.00000000E+00  0.00000000E+00
  0.00000000E+00  0.00000000E+00  0.00000000E+00
  0.00000000E+00  0.00000000E+00  0.00000000E+00
  0.00000000E+00  0.00000000E+00  0.00000000E+00
  0.00000000E+00  0.00000000E+00  0.00000000E+00
  0.00000000E+00  0.00000000E+00  0.00000000E+00
  0.00000000E+00  0.00000000E+00  0.00000000E+00
  0.00000000E+00  0.00000000E+00  0.00000000E+00
  0.00000000E+00  0.00000000E+00  0.00000000E+00
  0.00000000E+00  0.00000000E+00  0.00000000E+00
  0.00000000E+00  0.00000000E+00  0.00000000E+00
  0.00000000E+00  0.00000000E+00  0.00000000E+00
  0.00000000E+00  0.00000000E+00  0.00000000E+00
  0.00000000E+00  0.00000000E+00  0.00000000E+00
  0.00000000E+00  0.00000000E+00  0.00000000E+00
  0.00000000E+00  0.00000000E+00  0.00000000E+00
  0.00000000E+00  0.00000000E+00  0.00000000E+00
  0.00000000E+00  0.00000000E+00  0.00000000E+00
  0.00000000E+00  0.00000000E+00  0.00000000E+00
  0.00000000E+00  0.00000000E+00  0.00000000E+00
  0.00000000E+00  0.00000000E+00  0.00000000E+00
  0.00000000E+00  0.00000000E+00  0.00000000E+00
  0.00000000E+00  0.00000000E+00  0.00000000E+00
  0.00000000E+00  0.00000000E+00  0.00000000E+00
  0.00000000E+00  0.00000000E+00  0.00000000E+00
  0.00000000E+00  0.00000000E+00  0.00000000E+00
  0.00000000E+00  0.00000000E+00  0.00000000E+00
  0.00000000E+00  0.00000000E+00  0.00000000E+00
