MAPbI3-cubic                            
   1.00000000000000     
    12.6934216067070640    0.0000000000000000    0.0000000000000000
     0.0000000000000000   12.6942802903675620    0.0000000000000000
     0.0000000000000000    0.0000000000000000   12.6950893721022808
   Cs   Pb   Sn   I 
     8     5     3    24
Selective dynamics
Direct
  0.9989428606903000  0.9788958262257779  0.9988039262475690   T   T   T
  0.9981079505607352  0.0191762028853741  0.5012463198905669   T   T   T
  0.9971166790159648  0.4808484725055822  0.9989352445535071   T   T   T
  0.9985124960498737  0.5225079475514737  0.5032797289556902   T   T   T
  0.5014875039501263  0.9774920524485263  0.9967202710443098   T   T   T
  0.5028833209840347  0.0191515274944233  0.5010647554464929   T   T   T
  0.5018920494392648  0.4808237971146300  0.9987536801094331   T   T   T
  0.5010571393097005  0.5211041737742221  0.5011960737524310   T   T   T
  0.2500000000000000  0.2500000000000000  0.2500000000000000   T   T   T
  0.2500000000000000  0.2500000000000000  0.7500000000000000   T   T   T
  0.2500000000000000  0.7500000000000000  0.2500000000000000   T   T   T
  0.7500000000000000  0.2500000000000000  0.2500000000000000   T   T   T
  0.7500000000000000  0.7500000000000000  0.7500000000000000   T   T   T
  0.2500000000000000  0.7500000000000000  0.7500000000000000   T   T   T
  0.7500000000000000  0.2500000000000000  0.7500000000000000   T   T   T
  0.7500000000000000  0.7500000000000000  0.2500000000000000   T   T   T
  0.2050891765085232  0.2503882606471508  0.9998256586563521   T   T   T
  0.2949108384914703  0.2496117393528498  0.5001743413436472   T   T   T
  0.2866366326682263  0.7515786746117211  0.9974370122665466   T   T   T
  0.2133633823317723  0.7484213253882789  0.5025629877334534   T   T   T
  0.7886255582856578  0.2507798283694608  0.9974513398675848   T   T   T
  0.7113744417143422  0.2492201716305414  0.5025486601324152   T   T   T
  0.7145568586464589  0.7502485637480326  0.0023434568631369   T   T   T
  0.7854431413535411  0.7497514362519674  0.4976565431368586   T   T   T
  0.1980211264636497  0.9998397464010644  0.2509894383257201   T   T   T
  0.2061726278819052  0.9974197248513096  0.7495949775476396   T   T   T
  0.3019788885363452  0.5001602535989360  0.2490105616742747   T   T   T
  0.2938273871180863  0.5025802751486904  0.7504050224523604   T   T   T
  0.7957864277311619  0.9974732964237703  0.2499376048439143   T   T   T
  0.7921608245970762  0.0023689793806530  0.7496463413346099   T   T   T
  0.7042135722688381  0.5025267035762297  0.2500623951560863   T   T   T
  0.7078391754029238  0.4976310206193525  0.7503536586653901   T   T   T
  0.9999211892315154  0.2952279199643319  0.2906385266430039   T   T   T
  0.9974362034813419  0.2893913913529898  0.7109549416316626   T   T   T
  0.9974363285530362  0.7063655753537987  0.2150489928134876   T   T   T
  0.0023252916997575  0.7100121072153186  0.7853973112992813   T   T   T
  0.5000788107684855  0.2047720950356626  0.2093614883569914   T   T   T
  0.5025637965186581  0.2106086236470067  0.7890450583683374   T   T   T
  0.5025636714469638  0.7936344246462013  0.2849510221865049   T   T   T
  0.4976747083002460  0.7899878927846814  0.7146026887007187   T   T   T
 
  0.00000000E+00  0.00000000E+00  0.00000000E+00
  0.00000000E+00  0.00000000E+00  0.00000000E+00
  0.00000000E+00  0.00000000E+00  0.00000000E+00
  0.00000000E+00  0.00000000E+00  0.00000000E+00
  0.00000000E+00  0.00000000E+00  0.00000000E+00
  0.00000000E+00  0.00000000E+00  0.00000000E+00
  0.00000000E+00  0.00000000E+00  0.00000000E+00
  0.00000000E+00  0.00000000E+00  0.00000000E+00
  0.00000000E+00  0.00000000E+00  0.00000000E+00
  0.00000000E+00  0.00000000E+00  0.00000000E+00
  0.00000000E+00  0.00000000E+00  0.00000000E+00
  0.00000000E+00  0.00000000E+00  0.00000000E+00
  0.00000000E+00  0.00000000E+00  0.00000000E+00
  0.00000000E+00  0.00000000E+00  0.00000000E+00
  0.00000000E+00  0.00000000E+00  0.00000000E+00
  0.00000000E+00  0.00000000E+00  0.00000000E+00
  0.00000000E+00  0.00000000E+00  0.00000000E+00
  0.00000000E+00  0.00000000E+00  0.00000000E+00
  0.00000000E+00  0.00000000E+00  0.00000000E+00
  0.00000000E+00  0.00000000E+00  0.00000000E+00
  0.00000000E+00  0.00000000E+00  0.00000000E+00
  0.00000000E+00  0.00000000E+00  0.00000000E+00
  0.00000000E+00  0.00000000E+00  0.00000000E+00
  0.00000000E+00  0.00000000E+00  0.00000000E+00
  0.00000000E+00  0.00000000E+00  0.00000000E+00
  0.00000000E+00  0.00000000E+00  0.00000000E+00
  0.00000000E+00  0.00000000E+00  0.00000000E+00
  0.00000000E+00  0.00000000E+00  0.00000000E+00
  0.00000000E+00  0.00000000E+00  0.00000000E+00
  0.00000000E+00  0.00000000E+00  0.00000000E+00
  0.00000000E+00  0.00000000E+00  0.00000000E+00
  0.00000000E+00  0.00000000E+00  0.00000000E+00
  0.00000000E+00  0.00000000E+00  0.00000000E+00
  0.00000000E+00  0.00000000E+00  0.00000000E+00
  0.00000000E+00  0.00000000E+00  0.00000000E+00
  0.00000000E+00  0.00000000E+00  0.00000000E+00
  0.00000000E+00  0.00000000E+00  0.00000000E+00
  0.00000000E+00  0.00000000E+00  0.00000000E+00
  0.00000000E+00  0.00000000E+00  0.00000000E+00
  0.00000000E+00  0.00000000E+00  0.00000000E+00
