MAPbI3-cubic                            
   1.00000000000000     
    12.7442257572524902    0.0000000000000000    0.0000000000000000
     0.0000000000000000   12.7453760118258188    0.0000000000000000
     0.0000000000000000    0.0000000000000000   12.7465242262087397
   Cs   Pb   Sn   I 
     8     7     1    24
Selective dynamics
Direct
  0.9785193339591558  0.9617895118970452  0.9989427174771848   T   T   T
  0.0218124263875552  0.0370557612999107  0.5012204695431279   T   T   T
  0.9607327649338373  0.4811732650922522  0.9984217093610752   T   T   T
  0.0341766078001768  0.5248457950573737  0.5007465170380527   T   T   T
  0.4658233921998232  0.9751542049426263  0.9992534829619473   T   T   T
  0.5392672350661627  0.0188267349077549  0.5015782906389248   T   T   T
  0.4781875736124448  0.4629442387000893  0.9987795304568721   T   T   T
  0.5214806660408442  0.5382104881029548  0.5010572825228152   T   T   T
  0.2500000000000000  0.2500000000000000  0.2500000000000000   T   T   T
  0.2500000000000000  0.2500000000000000  0.7500000000000000   T   T   T
  0.2500000000000000  0.7500000000000000  0.2500000000000000   T   T   T
  0.2500000000000000  0.7500000000000000  0.7500000000000000   T   T   T
  0.7500000000000000  0.2500000000000000  0.2500000000000000   T   T   T
  0.7500000000000000  0.2500000000000000  0.7500000000000000   T   T   T
  0.7500000000000000  0.7500000000000000  0.2500000000000000   T   T   T
  0.7500000000000000  0.7500000000000000  0.7500000000000000   T   T   T
  0.2150703130150760  0.2954237682658203  0.9999426738462276   T   T   T
  0.2849297019849217  0.2045762317341797  0.5000573261537724   T   T   T
  0.2922338175675776  0.7158628135366101  0.9998607177014804   T   T   T
  0.2077661974324201  0.7841371864633899  0.5001392822985196   T   T   T
  0.7956921581306133  0.2183459367995368  0.9998078458785358   T   T   T
  0.7043078418693867  0.2816540632004632  0.5001921541214642   T   T   T
  0.7206959593731455  0.7881194647348693  0.9972009867728602   T   T   T
  0.7793040406268545  0.7118805352651307  0.5027990132271398   T   T   T
  0.2068471468006265  0.9998489345471526  0.2100144683780982   T   T   T
  0.2089058494836422  0.9998461850352953  0.7901324266726562   T   T   T
  0.2931528681993711  0.5001510654528474  0.2899855316219018   T   T   T
  0.2910941655163555  0.5001538149647047  0.7098675733273438   T   T   T
  0.7936174710797985  0.9997139248630944  0.2876901256303697   T   T   T
  0.7897130613591941  0.9974546142868448  0.7140896085797976   T   T   T
  0.7063825289202015  0.5002860751369056  0.2123098743696303   T   T   T
  0.7102869386408059  0.5025453857131552  0.7859103914202024   T   T   T
  0.9999880917691826  0.2928260508332343  0.2917572415636585   T   T   T
  0.9998256823285701  0.2909410365308389  0.7083356716782632   T   T   T
  0.9999235845771324  0.7061082520244710  0.2130887789097144   T   T   T
  0.9974496804380095  0.7110440865309826  0.7849748320187544   T   T   T
  0.5000119082308174  0.2071739641667634  0.2082427734363392   T   T   T
  0.5001743176714299  0.2090589784691588  0.7916643283217368   T   T   T
  0.5000764154228676  0.7938917479755290  0.2869112360902832   T   T   T
  0.5025503195619905  0.7889559134690174  0.7150251679812456   T   T   T
 
  0.00000000E+00  0.00000000E+00  0.00000000E+00
  0.00000000E+00  0.00000000E+00  0.00000000E+00
  0.00000000E+00  0.00000000E+00  0.00000000E+00
  0.00000000E+00  0.00000000E+00  0.00000000E+00
  0.00000000E+00  0.00000000E+00  0.00000000E+00
  0.00000000E+00  0.00000000E+00  0.00000000E+00
  0.00000000E+00  0.00000000E+00  0.00000000E+00
  0.00000000E+00  0.00000000E+00  0.00000000E+00
  0.00000000E+00  0.00000000E+00  0.00000000E+00
  0.00000000E+00  0.00000000E+00  0.00000000E+00
  0.00000000E+00  0.00000000E+00  0.00000000E+00
  0.00000000E+00  0.00000000E+00  0.00000000E+00
  0.00000000E+00  0.00000000E+00  0.00000000E+00
  0.00000000E+00  0.00000000E+00  0.00000000E+00
  0.00000000E+00  0.00000000E+00  0.00000000E+00
  0.00000000E+00  0.00000000E+00  0.00000000E+00
  0.00000000E+00  0.00000000E+00  0.00000000E+00
  0.00000000E+00  0.00000000E+00  0.00000000E+00
  0.00000000E+00  0.00000000E+00  0.00000000E+00
  0.00000000E+00  0.00000000E+00  0.00000000E+00
  0.00000000E+00  0.00000000E+00  0.00000000E+00
  0.00000000E+00  0.00000000E+00  0.00000000E+00
  0.00000000E+00  0.00000000E+00  0.00000000E+00
  0.00000000E+00  0.00000000E+00  0.00000000E+00
  0.00000000E+00  0.00000000E+00  0.00000000E+00
  0.00000000E+00  0.00000000E+00  0.00000000E+00
  0.00000000E+00  0.00000000E+00  0.00000000E+00
  0.00000000E+00  0.00000000E+00  0.00000000E+00
  0.00000000E+00  0.00000000E+00  0.00000000E+00
  0.00000000E+00  0.00000000E+00  0.00000000E+00
  0.00000000E+00  0.00000000E+00  0.00000000E+00
  0.00000000E+00  0.00000000E+00  0.00000000E+00
  0.00000000E+00  0.00000000E+00  0.00000000E+00
  0.00000000E+00  0.00000000E+00  0.00000000E+00
  0.00000000E+00  0.00000000E+00  0.00000000E+00
  0.00000000E+00  0.00000000E+00  0.00000000E+00
  0.00000000E+00  0.00000000E+00  0.00000000E+00
  0.00000000E+00  0.00000000E+00  0.00000000E+00
  0.00000000E+00  0.00000000E+00  0.00000000E+00
  0.00000000E+00  0.00000000E+00  0.00000000E+00
