MAPbI3-cubic                            
   1.00000000000000     
    12.6204213591868637    0.0000000000000000    0.0000000000000000
     0.0000000000000000   12.6230302112910344    0.0000000000000000
     0.0000000000000000    0.0000000000000000   12.6282676539969803
   Cs   Pb   Sn   I 
     8     2     6    24
Selective dynamics
Direct
  0.9984154017834597  0.9784655917044909  0.0000000000000000   T   T   T
  0.9969927369274439  0.0187210227894128  0.5000000000000000   T   T   T
  0.9950751948187562  0.4838695815156857  0.0000000000000000   T   T   T
  0.9973869949337398  0.5226455998065778  0.5000000000000000   T   T   T
  0.5026130050662602  0.9773544001934222  0.0000000000000000   T   T   T
  0.5049248051812438  0.0161304184843143  0.5000000000000000   T   T   T
  0.5030072630725561  0.4812789772105872  0.0000000000000000   T   T   T
  0.5015845982165403  0.5215344082955091  0.5000000000000000   T   T   T
  0.2500000000000000  0.2500000000000000  0.2500000000000000   T   T   T
  0.2500000000000000  0.2500000000000000  0.7500000000000000   T   T   T
  0.2500000000000000  0.7500000000000000  0.2500000000000000   T   T   T
  0.2500000000000000  0.7500000000000000  0.7500000000000000   T   T   T
  0.7500000000000000  0.2500000000000000  0.2500000000000000   T   T   T
  0.7500000000000000  0.2500000000000000  0.7500000000000000   T   T   T
  0.7500000000000000  0.7500000000000000  0.2500000000000000   T   T   T
  0.7500000000000000  0.7500000000000000  0.7500000000000000   T   T   T
  0.2035138933776490  0.2495160083939781  0.0000000000000000   T   T   T
  0.2964861216223487  0.2504839916060220  0.5000000000000000   T   T   T
  0.2810313252860702  0.7518267765005491  0.0000000000000000   T   T   T
  0.2189686897139346  0.7481732234994509  0.5000000000000000   T   T   T
  0.7855361377828839  0.2506859635645707  0.0000000000000000   T   T   T
  0.7144638622171161  0.2493140364354292  0.5000000000000000   T   T   T
  0.7203543731566759  0.7494467779332483  0.0000000000000000   T   T   T
  0.7796456268433241  0.7505532220667517  0.5000000000000000   T   T   T
  0.2055644520720966  0.9973053689793091  0.2513773099675670   T   T   T
  0.2055644520720966  0.9973053689793091  0.7486226900324332   T   T   T
  0.2944355629279011  0.5026946310206909  0.2486226900324331   T   T   T
  0.2944355629279011  0.5026946310206909  0.7513773099675668   T   T   T
  0.7885751740394495  0.9997526705023827  0.2502110500555284   T   T   T
  0.7885751740394495  0.9997526705023827  0.7497889499444718   T   T   T
  0.7114248259605505  0.5002473294976173  0.2497889499444716   T   T   T
  0.7114248259605505  0.5002473294976173  0.7502110500555282   T   T   T
  0.9972412115005953  0.2900279233156139  0.2889901199934843   T   T   T
  0.9972412115005953  0.2900279233156139  0.7110098800065084   T   T   T
  0.9998622275564683  0.7116078678968839  0.2195896324210746   T   T   T
  0.9998622275564683  0.7116078678968839  0.7804103825789233   T   T   T
  0.5027587884994047  0.2099720916843838  0.2110098950065133   T   T   T
  0.5027587884994047  0.2099720916843838  0.7889901199934916   T   T   T
  0.5001377724435317  0.7883921321031161  0.2804103825789232   T   T   T
  0.5001377724435317  0.7883921321031161  0.7195896174210767   T   T   T
 
  0.00000000E+00  0.00000000E+00  0.00000000E+00
  0.00000000E+00  0.00000000E+00  0.00000000E+00
  0.00000000E+00  0.00000000E+00  0.00000000E+00
  0.00000000E+00  0.00000000E+00  0.00000000E+00
  0.00000000E+00  0.00000000E+00  0.00000000E+00
  0.00000000E+00  0.00000000E+00  0.00000000E+00
  0.00000000E+00  0.00000000E+00  0.00000000E+00
  0.00000000E+00  0.00000000E+00  0.00000000E+00
  0.00000000E+00  0.00000000E+00  0.00000000E+00
  0.00000000E+00  0.00000000E+00  0.00000000E+00
  0.00000000E+00  0.00000000E+00  0.00000000E+00
  0.00000000E+00  0.00000000E+00  0.00000000E+00
  0.00000000E+00  0.00000000E+00  0.00000000E+00
  0.00000000E+00  0.00000000E+00  0.00000000E+00
  0.00000000E+00  0.00000000E+00  0.00000000E+00
  0.00000000E+00  0.00000000E+00  0.00000000E+00
  0.00000000E+00  0.00000000E+00  0.00000000E+00
  0.00000000E+00  0.00000000E+00  0.00000000E+00
  0.00000000E+00  0.00000000E+00  0.00000000E+00
  0.00000000E+00  0.00000000E+00  0.00000000E+00
  0.00000000E+00  0.00000000E+00  0.00000000E+00
  0.00000000E+00  0.00000000E+00  0.00000000E+00
  0.00000000E+00  0.00000000E+00  0.00000000E+00
  0.00000000E+00  0.00000000E+00  0.00000000E+00
  0.00000000E+00  0.00000000E+00  0.00000000E+00
  0.00000000E+00  0.00000000E+00  0.00000000E+00
  0.00000000E+00  0.00000000E+00  0.00000000E+00
  0.00000000E+00  0.00000000E+00  0.00000000E+00
  0.00000000E+00  0.00000000E+00  0.00000000E+00
  0.00000000E+00  0.00000000E+00  0.00000000E+00
  0.00000000E+00  0.00000000E+00  0.00000000E+00
  0.00000000E+00  0.00000000E+00  0.00000000E+00
  0.00000000E+00  0.00000000E+00  0.00000000E+00
  0.00000000E+00  0.00000000E+00  0.00000000E+00
  0.00000000E+00  0.00000000E+00  0.00000000E+00
  0.00000000E+00  0.00000000E+00  0.00000000E+00
  0.00000000E+00  0.00000000E+00  0.00000000E+00
  0.00000000E+00  0.00000000E+00  0.00000000E+00
  0.00000000E+00  0.00000000E+00  0.00000000E+00
  0.00000000E+00  0.00000000E+00  0.00000000E+00
