MAPbI3-cubic                            
   1.00000000000000     
    12.6669895111317885    0.0000000000000000    0.0000000000000000
     0.0000000000000000   12.6703174651365540    0.0000000000000000
     0.0000000000000000    0.0000000000000000   12.6692153003061758
   Cs   Pb   Sn   I 
     8     4     4    24
Selective dynamics
Direct
  0.9958162775740980  0.9821154009544717  0.0000000000000000   T   T   T
  0.9958162775740980  0.0178845990455275  0.5000000000000000   T   T   T
  0.9942682040094739  0.4795149280088229  0.0000000000000000   T   T   T
  0.9942682040094739  0.5204850719911761  0.5000000000000000   T   T   T
  0.5057317959905261  0.9795149280088239  0.0000000000000000   T   T   T
  0.5057317959905261  0.0204850719911770  0.5000000000000000   T   T   T
  0.5041837224259020  0.4821154009544720  0.0000000000000000   T   T   T
  0.5041837224259020  0.5178845990455283  0.5000000000000000   T   T   T
  0.2500000000000000  0.2500000000000000  0.2500000000000000   T   T   T
  0.2500000000000000  0.2500000000000000  0.7500000000000000   T   T   T
  0.2500000000000000  0.7500000000000000  0.2500000000000000   T   T   T
  0.2500000000000000  0.7500000000000000  0.7500000000000000   T   T   T
  0.7500000000000000  0.2500000000000000  0.2500000000000000   T   T   T
  0.7500000000000000  0.2500000000000000  0.7500000000000000   T   T   T
  0.7500000000000000  0.7500000000000000  0.2500000000000000   T   T   T
  0.7500000000000000  0.7500000000000000  0.7500000000000000   T   T   T
  0.2056420714295833  0.2499744570403376  0.0000000000000000   T   T   T
  0.2943579435704136  0.2500255429596626  0.5000000000000000   T   T   T
  0.2943579435704136  0.7499744570403375  0.0000000000000000   T   T   T
  0.2056420714295833  0.7500255429596625  0.5000000000000000   T   T   T
  0.7838292673075077  0.2497526265730191  0.0000000000000000   T   T   T
  0.7161707326924923  0.2502473734269802  0.5000000000000000   T   T   T
  0.7161707326924923  0.7497526265730203  0.0000000000000000   T   T   T
  0.7838292673075077  0.7502473734269797  0.5000000000000000   T   T   T
  0.2000096160607149  0.0000000000000000  0.2500000000000000   T   T   T
  0.2000096160607149  0.0000000000000000  0.7500000000000000   T   T   T
  0.2999903989392829  0.5000000000000000  0.2500000000000000   T   T   T
  0.2999903989392829  0.5000000000000000  0.7500000000000000   T   T   T
  0.7887773541996707  0.0000000000000000  0.2500000000000000   T   T   T
  0.7887773541996707  0.0000000000000000  0.7500000000000000   T   T   T
  0.7112226458003293  0.5000000000000000  0.2500000000000000   T   T   T
  0.7112226458003293  0.5000000000000000  0.7500000000000000   T   T   T
  0.9970975185068113  0.2908182619696593  0.2867044759171818   T   T   T
  0.9970975185068113  0.2908182619696593  0.7132955240828196   T   T   T
  0.9970975185068113  0.7091817380303407  0.2132955390828164   T   T   T
  0.9970975185068113  0.7091817380303407  0.7867044759171804   T   T   T
  0.5029024814931887  0.2091817530303381  0.2132955390828164   T   T   T
  0.5029024814931887  0.2091817530303381  0.7867044759171804   T   T   T
  0.5029024814931887  0.7908182619696593  0.2867044759171818   T   T   T
  0.5029024814931887  0.7908182619696593  0.7132955240828196   T   T   T
 
  0.00000000E+00  0.00000000E+00  0.00000000E+00
  0.00000000E+00  0.00000000E+00  0.00000000E+00
  0.00000000E+00  0.00000000E+00  0.00000000E+00
  0.00000000E+00  0.00000000E+00  0.00000000E+00
  0.00000000E+00  0.00000000E+00  0.00000000E+00
  0.00000000E+00  0.00000000E+00  0.00000000E+00
  0.00000000E+00  0.00000000E+00  0.00000000E+00
  0.00000000E+00  0.00000000E+00  0.00000000E+00
  0.00000000E+00  0.00000000E+00  0.00000000E+00
  0.00000000E+00  0.00000000E+00  0.00000000E+00
  0.00000000E+00  0.00000000E+00  0.00000000E+00
  0.00000000E+00  0.00000000E+00  0.00000000E+00
  0.00000000E+00  0.00000000E+00  0.00000000E+00
  0.00000000E+00  0.00000000E+00  0.00000000E+00
  0.00000000E+00  0.00000000E+00  0.00000000E+00
  0.00000000E+00  0.00000000E+00  0.00000000E+00
  0.00000000E+00  0.00000000E+00  0.00000000E+00
  0.00000000E+00  0.00000000E+00  0.00000000E+00
  0.00000000E+00  0.00000000E+00  0.00000000E+00
  0.00000000E+00  0.00000000E+00  0.00000000E+00
  0.00000000E+00  0.00000000E+00  0.00000000E+00
  0.00000000E+00  0.00000000E+00  0.00000000E+00
  0.00000000E+00  0.00000000E+00  0.00000000E+00
  0.00000000E+00  0.00000000E+00  0.00000000E+00
  0.00000000E+00  0.00000000E+00  0.00000000E+00
  0.00000000E+00  0.00000000E+00  0.00000000E+00
  0.00000000E+00  0.00000000E+00  0.00000000E+00
  0.00000000E+00  0.00000000E+00  0.00000000E+00
  0.00000000E+00  0.00000000E+00  0.00000000E+00
  0.00000000E+00  0.00000000E+00  0.00000000E+00
  0.00000000E+00  0.00000000E+00  0.00000000E+00
  0.00000000E+00  0.00000000E+00  0.00000000E+00
  0.00000000E+00  0.00000000E+00  0.00000000E+00
  0.00000000E+00  0.00000000E+00  0.00000000E+00
  0.00000000E+00  0.00000000E+00  0.00000000E+00
  0.00000000E+00  0.00000000E+00  0.00000000E+00
  0.00000000E+00  0.00000000E+00  0.00000000E+00
  0.00000000E+00  0.00000000E+00  0.00000000E+00
  0.00000000E+00  0.00000000E+00  0.00000000E+00
  0.00000000E+00  0.00000000E+00  0.00000000E+00
