MAPbI3-cubic                            
   1.00000000000000     
    12.6668917163625814    0.0000000000000000    0.0000000000000000
     0.0000000000000000   12.6663491202548339    0.0000000000000000
     0.0000000000000000    0.0000000000000000   12.6658893601496327
   Cs   Pb   Sn   I 
     8     4     4    24
Selective dynamics
Direct
  0.9978215785056808  0.9756224623966354  0.9976317408333187   T   T   T
  0.9974837178746477  0.0204742336679131  0.5026500348123809   T   T   T
  0.9949613836948581  0.4843399652974970  0.9952122221767330   T   T   T
  0.9950776445927215  0.5244126555361476  0.5047222580283648   T   T   T
  0.5049223554072785  0.9755873444638524  0.9952777419716352   T   T   T
  0.5050386163051419  0.0156600347025022  0.5047877778232670   T   T   T
  0.5025162821253523  0.4795257663320858  0.9973499651876191   T   T   T
  0.5021784214943192  0.5243775376033646  0.5023682591666813   T   T   T
  0.2500000000000000  0.2500000000000000  0.2500000000000000   T   T   T
  0.2500000000000000  0.2500000000000000  0.7500000000000000   T   T   T
  0.2500000000000000  0.7500000000000000  0.2500000000000000   T   T   T
  0.7500000000000000  0.2500000000000000  0.2500000000000000   T   T   T
  0.7500000000000000  0.2500000000000000  0.7500000000000000   T   T   T
  0.7500000000000000  0.7500000000000000  0.2500000000000000   T   T   T
  0.7500000000000000  0.7500000000000000  0.7500000000000000   T   T   T
  0.2500000000000000  0.7500000000000000  0.7500000000000000   T   T   T
  0.2020661762108968  0.2506836829634257  0.9997519899873888   T   T   T
  0.2979338387891017  0.2493163170365730  0.5002480100126112   T   T   T
  0.2836603875407830  0.7517489293825694  0.9973154717748394   T   T   T
  0.2163396274592136  0.7482510706174306  0.5026845282251606   T   T   T
  0.7897677538897451  0.2493858069167374  0.9972795109701986   T   T   T
  0.7102322461102549  0.2506141930832631  0.5027204890298014   T   T   T
  0.7230210030459664  0.7501023881439038  0.9996890657619081   T   T   T
  0.7769789969540336  0.7498976118560962  0.5003109342380919   T   T   T
  0.1956678321370747  0.9997602821304739  0.2512918692915541   T   T   T
  0.2091230257098032  0.9973341003432981  0.7492548331369649   T   T   T
  0.3043321828629212  0.5002397178695261  0.2487081307084465   T   T   T
  0.2908769892901933  0.5026658996567019  0.7507451668630351   T   T   T
  0.7964578513837866  0.9972780001558713  0.2506974868335807   T   T   T
  0.7841068252219404  0.9996992579034877  0.7489931648126634   T   T   T
  0.7035421486162134  0.5027219998441287  0.2493025131664186   T   T   T
  0.7158931747780596  0.5003007420965123  0.7510068351873366   T   T   T
  0.9998597112592038  0.2973540607209009  0.2925702790686729   T   T   T
  0.9973560774194363  0.2862802867249111  0.7087409779761423   T   T   T
  0.9973412827934072  0.7038991719303883  0.2187754799962522   T   T   T
  0.9997341348339105  0.7152078910644071  0.7800115237398167   T   T   T
  0.5001402887407962  0.2026459542790962  0.2074297359313238   T   T   T
  0.5026439225805637  0.2137197282750858  0.7912590220238577   T   T   T
  0.5026587172065928  0.7961008280696117  0.2812245350037457   T   T   T
  0.5002658651660895  0.7847921089355929  0.7199884762601833   T   T   T
 
  0.00000000E+00  0.00000000E+00  0.00000000E+00
  0.00000000E+00  0.00000000E+00  0.00000000E+00
  0.00000000E+00  0.00000000E+00  0.00000000E+00
  0.00000000E+00  0.00000000E+00  0.00000000E+00
  0.00000000E+00  0.00000000E+00  0.00000000E+00
  0.00000000E+00  0.00000000E+00  0.00000000E+00
  0.00000000E+00  0.00000000E+00  0.00000000E+00
  0.00000000E+00  0.00000000E+00  0.00000000E+00
  0.00000000E+00  0.00000000E+00  0.00000000E+00
  0.00000000E+00  0.00000000E+00  0.00000000E+00
  0.00000000E+00  0.00000000E+00  0.00000000E+00
  0.00000000E+00  0.00000000E+00  0.00000000E+00
  0.00000000E+00  0.00000000E+00  0.00000000E+00
  0.00000000E+00  0.00000000E+00  0.00000000E+00
  0.00000000E+00  0.00000000E+00  0.00000000E+00
  0.00000000E+00  0.00000000E+00  0.00000000E+00
  0.00000000E+00  0.00000000E+00  0.00000000E+00
  0.00000000E+00  0.00000000E+00  0.00000000E+00
  0.00000000E+00  0.00000000E+00  0.00000000E+00
  0.00000000E+00  0.00000000E+00  0.00000000E+00
  0.00000000E+00  0.00000000E+00  0.00000000E+00
  0.00000000E+00  0.00000000E+00  0.00000000E+00
  0.00000000E+00  0.00000000E+00  0.00000000E+00
  0.00000000E+00  0.00000000E+00  0.00000000E+00
  0.00000000E+00  0.00000000E+00  0.00000000E+00
  0.00000000E+00  0.00000000E+00  0.00000000E+00
  0.00000000E+00  0.00000000E+00  0.00000000E+00
  0.00000000E+00  0.00000000E+00  0.00000000E+00
  0.00000000E+00  0.00000000E+00  0.00000000E+00
  0.00000000E+00  0.00000000E+00  0.00000000E+00
  0.00000000E+00  0.00000000E+00  0.00000000E+00
  0.00000000E+00  0.00000000E+00  0.00000000E+00
  0.00000000E+00  0.00000000E+00  0.00000000E+00
  0.00000000E+00  0.00000000E+00  0.00000000E+00
  0.00000000E+00  0.00000000E+00  0.00000000E+00
  0.00000000E+00  0.00000000E+00  0.00000000E+00
  0.00000000E+00  0.00000000E+00  0.00000000E+00
  0.00000000E+00  0.00000000E+00  0.00000000E+00
  0.00000000E+00  0.00000000E+00  0.00000000E+00
  0.00000000E+00  0.00000000E+00  0.00000000E+00
