MAPbI3-cubic                            
   1.00000000000000     
    12.7809166179613278    0.0000000000000000    0.0000000000000000
     0.0000000000000000   12.7769185723448349    0.0000000000000000
     0.0000000000000000    0.0000000000000000   12.7732148373530610
   Cs   Pb   I 
     8     8    24
Selective dynamics
Direct
  0.0000000000000000  0.9816586103288476 -0.0000000000000000   T   T   T
  0.0000000000000000  0.0183413896711524  0.5000000000000000   T   T   T
  0.0000000000000000  0.4783546165582887 -0.0000000000000000   T   T   T
  0.0000000000000000  0.5216453834417112  0.5000000000000000   T   T   T
  0.5000000000000000  0.9783546165582888 -0.0000000000000000   T   T   T
  0.5000000000000000  0.0216453834417113  0.5000000000000000   T   T   T
  0.5000000000000000  0.4816586103288476 -0.0000000000000000   T   T   T
  0.5000000000000000  0.5183413896711524  0.5000000000000000   T   T   T
  0.2500000000000000  0.2500000000000000  0.2500000000000000   T   T   T
  0.2500000000000000  0.2500000000000000  0.7500000000000000   T   T   T
  0.2500000000000000  0.7500000000000000  0.2500000000000000   T   T   T
  0.2500000000000000  0.7500000000000000  0.7500000000000000   T   T   T
  0.7500000000000000  0.2500000000000000  0.2500000000000000   T   T   T
  0.7500000000000000  0.2500000000000000  0.7500000000000000   T   T   T
  0.7500000000000000  0.7500000000000000  0.2500000000000000   T   T   T
  0.7500000000000000  0.7500000000000000  0.7500000000000000   T   T   T
  0.2066079939046822  0.2503776903729380 -0.0000000000000000   T   T   T
  0.2933920210953154  0.2496223096270620  0.5000000000000000   T   T   T
  0.2933920210953154  0.7503776903729380 -0.0000000000000000   T   T   T
  0.2066079939046822  0.7496223096270620  0.5000000000000000   T   T   T
  0.7933920210953154  0.2503776903729380 -0.0000000000000000   T   T   T
  0.7066079789046846  0.2496223096270620  0.5000000000000000   T   T   T
  0.7066079789046846  0.7503776903729380 -0.0000000000000000   T   T   T
  0.7933920210953154  0.7496223096270620  0.5000000000000000   T   T   T
  0.2005673064129446  0.0000000000000000  0.2500000000000000   T   T   T
  0.2005673064129446  0.0000000000000000  0.7500000000000000   T   T   T
  0.2994327085870531  0.5000000000000000  0.2500000000000000   T   T   T
  0.2994327085870531  0.5000000000000000  0.7500000000000000   T   T   T
  0.7994327085870532  0.0000000000000000  0.2500000000000000   T   T   T
  0.7994327085870532  0.0000000000000000  0.7500000000000000   T   T   T
  0.7005672914129468  0.5000000000000000  0.2500000000000000   T   T   T
  0.7005672914129468  0.5000000000000000  0.7500000000000000   T   T   T
  0.0000000000000000  0.2951555985734554  0.2893543367775761   T   T   T
  0.0000000000000000  0.2951555985734554  0.7106456632224237   T   T   T
  0.0000000000000000  0.7048444014265446  0.2106456782224216   T   T   T
  0.0000000000000000  0.7048444014265446  0.7893543367775763   T   T   T
  0.5000000000000000  0.2048444164265423  0.2106456782224216   T   T   T
  0.5000000000000000  0.2048444164265423  0.7893543367775763   T   T   T
  0.5000000000000000  0.7951555985734554  0.2893543367775761   T   T   T
  0.5000000000000000  0.7951555985734554  0.7106456632224237   T   T   T
 
  0.00000000E+00  0.00000000E+00  0.00000000E+00
  0.00000000E+00  0.00000000E+00  0.00000000E+00
  0.00000000E+00  0.00000000E+00  0.00000000E+00
  0.00000000E+00  0.00000000E+00  0.00000000E+00
  0.00000000E+00  0.00000000E+00  0.00000000E+00
  0.00000000E+00  0.00000000E+00  0.00000000E+00
  0.00000000E+00  0.00000000E+00  0.00000000E+00
  0.00000000E+00  0.00000000E+00  0.00000000E+00
  0.00000000E+00  0.00000000E+00  0.00000000E+00
  0.00000000E+00  0.00000000E+00  0.00000000E+00
  0.00000000E+00  0.00000000E+00  0.00000000E+00
  0.00000000E+00  0.00000000E+00  0.00000000E+00
  0.00000000E+00  0.00000000E+00  0.00000000E+00
  0.00000000E+00  0.00000000E+00  0.00000000E+00
  0.00000000E+00  0.00000000E+00  0.00000000E+00
  0.00000000E+00  0.00000000E+00  0.00000000E+00
  0.00000000E+00  0.00000000E+00  0.00000000E+00
  0.00000000E+00  0.00000000E+00  0.00000000E+00
  0.00000000E+00  0.00000000E+00  0.00000000E+00
  0.00000000E+00  0.00000000E+00  0.00000000E+00
  0.00000000E+00  0.00000000E+00  0.00000000E+00
  0.00000000E+00  0.00000000E+00  0.00000000E+00
  0.00000000E+00  0.00000000E+00  0.00000000E+00
  0.00000000E+00  0.00000000E+00  0.00000000E+00
  0.00000000E+00  0.00000000E+00  0.00000000E+00
  0.00000000E+00  0.00000000E+00  0.00000000E+00
  0.00000000E+00  0.00000000E+00  0.00000000E+00
  0.00000000E+00  0.00000000E+00  0.00000000E+00
  0.00000000E+00  0.00000000E+00  0.00000000E+00
  0.00000000E+00  0.00000000E+00  0.00000000E+00
  0.00000000E+00  0.00000000E+00  0.00000000E+00
  0.00000000E+00  0.00000000E+00  0.00000000E+00
  0.00000000E+00  0.00000000E+00  0.00000000E+00
  0.00000000E+00  0.00000000E+00  0.00000000E+00
  0.00000000E+00  0.00000000E+00  0.00000000E+00
  0.00000000E+00  0.00000000E+00  0.00000000E+00
  0.00000000E+00  0.00000000E+00  0.00000000E+00
  0.00000000E+00  0.00000000E+00  0.00000000E+00
  0.00000000E+00  0.00000000E+00  0.00000000E+00
  0.00000000E+00  0.00000000E+00  0.00000000E+00
