MAPbI3-cubic                            
   1.00000000000000     
    12.6668917163625814    0.0000000000000000    0.0000000000000000
     0.0000000000000000   12.6663491202548339    0.0000000000000000
     0.0000000000000000   -0.0000000000000000   12.6658893601496327
   Cs   Pb   Sn   I 
     8     4     4    24
Selective dynamics
Direct
  0.9981752819355532  0.9981732342107806  0.9981744234530460   T   T   T
  0.9981752819355532  0.9981732342107806  0.5018255765469540   T   T   T
  0.9981752819355532  0.5018267657892194  0.9981744234530460   T   T   T
  0.9981752819355532  0.5018267657892194  0.5018255765469540   T   T   T
  0.5018247180644468  0.9981732342107806  0.9981744234530460   T   T   T
  0.5018247180644468  0.9981732342107806  0.5018255765469540   T   T   T
  0.5018247180644468  0.5018267657892194  0.9981744234530460   T   T   T
  0.5018247180644468  0.5018267657892194  0.5018255765469540   T   T   T
  0.2500000000000000  0.2500000000000000  0.2500000000000000   T   T   T
  0.2500000000000000  0.2500000000000000  0.7500000000000000   T   T   T
  0.2500000000000000  0.7500000000000000  0.2500000000000000   T   T   T
  0.7500000000000000  0.2500000000000000  0.2500000000000000   T   T   T
  0.7500000000000000  0.2500000000000000  0.7500000000000000   T   T   T
  0.7500000000000000  0.7500000000000000  0.2500000000000000   T   T   T
  0.7500000000000000  0.7500000000000000  0.7500000000000000   T   T   T
  0.2500000000000000  0.7500000000000000  0.7500000000000000   T   T   T
  0.2500000000000000  0.2500000000000000  0.9997102411200400   T   T   T
  0.2500000000000000  0.7500000000000000  0.9971446753051080   T   T   T
  0.2500000000000000  0.2500000000000000  0.5002897588799600   T   T   T
  0.2500000000000000  0.7500000000000000  0.5028553246948920   T   T   T
  0.7500000000000000  0.2500000000000000  0.9971436355762354   T   T   T
  0.7500000000000000  0.7500000000000000  0.9996424838956534   T   T   T
  0.7500000000000000  0.2500000000000000  0.5028563644237646   T   T   T
  0.7500000000000000  0.7500000000000000  0.5003575161043466   T   T   T
  0.2500000000000000  0.9997105291291621  0.2500000000000000   T   T   T
  0.2500000000000000  0.5002894708708379  0.2500000000000000   T   T   T
  0.2500000000000000  0.9971447917712070  0.7500000000000000   T   T   T
  0.2500000000000000  0.5028552082287930  0.7500000000000000   T   T   T
  0.7500000000000000  0.9971441824487891  0.2500000000000000   T   T   T
  0.7500000000000000  0.5028558175512109  0.2500000000000000   T   T   T
  0.7500000000000000  0.9996423778641202  0.7500000000000000   T   T   T
  0.7500000000000000  0.5003576221358798  0.7500000000000000   T   T   T
  0.9997122132992510  0.2500000000000000  0.2500000000000000   T   T   T
  0.9971460210664922  0.7500000000000000  0.2500000000000000   T   T   T
  0.9971451929357490  0.2500000000000000  0.7500000000000000   T   T   T
  0.9996439526916348  0.7500000000000000  0.7500000000000000   T   T   T
  0.5002877867007490  0.2500000000000000  0.2500000000000000   T   T   T
  0.5028539789335078  0.7500000000000000  0.2500000000000000   T   T   T
  0.5028548070642510  0.2500000000000000  0.7500000000000000   T   T   T
  0.5003560473083652  0.7500000000000000  0.7500000000000000   T   T   T
 
  0.00000000E+00  0.00000000E+00  0.00000000E+00
  0.00000000E+00  0.00000000E+00  0.00000000E+00
  0.00000000E+00  0.00000000E+00  0.00000000E+00
  0.00000000E+00  0.00000000E+00  0.00000000E+00
  0.00000000E+00  0.00000000E+00  0.00000000E+00
  0.00000000E+00  0.00000000E+00  0.00000000E+00
  0.00000000E+00  0.00000000E+00  0.00000000E+00
  0.00000000E+00  0.00000000E+00  0.00000000E+00
  0.00000000E+00  0.00000000E+00  0.00000000E+00
  0.00000000E+00  0.00000000E+00  0.00000000E+00
  0.00000000E+00  0.00000000E+00  0.00000000E+00
  0.00000000E+00  0.00000000E+00  0.00000000E+00
  0.00000000E+00  0.00000000E+00  0.00000000E+00
  0.00000000E+00  0.00000000E+00  0.00000000E+00
  0.00000000E+00  0.00000000E+00  0.00000000E+00
  0.00000000E+00  0.00000000E+00  0.00000000E+00
  0.00000000E+00  0.00000000E+00  0.00000000E+00
  0.00000000E+00  0.00000000E+00  0.00000000E+00
  0.00000000E+00  0.00000000E+00  0.00000000E+00
  0.00000000E+00  0.00000000E+00  0.00000000E+00
  0.00000000E+00  0.00000000E+00  0.00000000E+00
  0.00000000E+00  0.00000000E+00  0.00000000E+00
  0.00000000E+00  0.00000000E+00  0.00000000E+00
  0.00000000E+00  0.00000000E+00  0.00000000E+00
  0.00000000E+00  0.00000000E+00  0.00000000E+00
  0.00000000E+00  0.00000000E+00  0.00000000E+00
  0.00000000E+00  0.00000000E+00  0.00000000E+00
  0.00000000E+00  0.00000000E+00  0.00000000E+00
  0.00000000E+00  0.00000000E+00  0.00000000E+00
  0.00000000E+00  0.00000000E+00  0.00000000E+00
  0.00000000E+00  0.00000000E+00  0.00000000E+00
  0.00000000E+00  0.00000000E+00  0.00000000E+00
  0.00000000E+00  0.00000000E+00  0.00000000E+00
  0.00000000E+00  0.00000000E+00  0.00000000E+00
  0.00000000E+00  0.00000000E+00  0.00000000E+00
  0.00000000E+00  0.00000000E+00  0.00000000E+00
  0.00000000E+00  0.00000000E+00  0.00000000E+00
  0.00000000E+00  0.00000000E+00  0.00000000E+00
  0.00000000E+00  0.00000000E+00  0.00000000E+00
  0.00000000E+00  0.00000000E+00  0.00000000E+00
