MAPbI3-cubic                            
   1.00000000000000     
    12.7442257572524902    0.0000000000000000    0.0000000000000000
     0.0000000000000000   12.7453760118258188    0.0000000000000000
     0.0000000000000000    0.0000000000000000   12.7465242262087397
   Cs   Pb   Sn   I 
     8     7     1    24
Selective dynamics
Direct
  0.9999641593503057  0.9999640742033620  0.9999639747910791   T   T   T
  0.9999641593503057  0.9999640742033620  0.5000360252089209   T   T   T
  0.9999641593503057  0.5000359257966380  0.9999639747910791   T   T   T
  0.9999641593503057  0.5000359257966380  0.5000360252089209   T   T   T
  0.5000358406496943  0.9999640742033620  0.9999639747910791   T   T   T
  0.5000358406496943  0.9999640742033620  0.5000360252089209   T   T   T
  0.5000358406496943  0.5000359257966380  0.9999639747910791   T   T   T
  0.5000358406496943  0.5000359257966380  0.5000360252089209   T   T   T
  0.2500000000000000  0.2500000000000000  0.2500000000000000   T   T   T
  0.2500000000000000  0.2500000000000000  0.7500000000000000   T   T   T
  0.2500000000000000  0.7500000000000000  0.2500000000000000   T   T   T
  0.2500000000000000  0.7500000000000000  0.7500000000000000   T   T   T
  0.7500000000000000  0.2500000000000000  0.2500000000000000   T   T   T
  0.7500000000000000  0.2500000000000000  0.7500000000000000   T   T   T
  0.7500000000000000  0.7500000000000000  0.2500000000000000   T   T   T
  0.7500000000000000  0.7500000000000000  0.7500000000000000   T   T   T
  0.2500000000000000  0.2500000000000000  0.9999957638920094   T   T   T
  0.2500000000000000  0.7500000000000000  0.9999489877443466   T   T   T
  0.2500000000000000  0.2500000000000000  0.5000042361079906   T   T   T
  0.2500000000000000  0.7500000000000000  0.5000510122556534   T   T   T
  0.7500000000000000  0.2500000000000000  0.9999486278902339   T   T   T
  0.7500000000000000  0.7500000000000000  0.9972995311099808   T   T   T
  0.7500000000000000  0.2500000000000000  0.5000513721097661   T   T   T
  0.7500000000000000  0.7500000000000000  0.5027004688900192   T   T   T
  0.2500000000000000  0.9999956724044381  0.2500000000000000   T   T   T
  0.2500000000000000  0.5000043275955619  0.2500000000000000   T   T   T
  0.2500000000000000  0.9999488848747120  0.7500000000000000   T   T   T
  0.2500000000000000  0.5000511151252880  0.7500000000000000   T   T   T
  0.7500000000000000  0.9999482473373575  0.2500000000000000   T   T   T
  0.7500000000000000  0.5000517526626425  0.2500000000000000   T   T   T
  0.7500000000000000  0.9973025244440521  0.7500000000000000   T   T   T
  0.7500000000000000  0.5026974755559479  0.7500000000000000   T   T   T
  0.9999956029020680  0.2500000000000000  0.2500000000000000   T   T   T
  0.9999481410104707  0.7500000000000000  0.2500000000000000   T   T   T
  0.9999484185576435  0.2500000000000000  0.7500000000000000   T   T   T
  0.9973057049131171  0.7500000000000000  0.7500000000000000   T   T   T
  0.5000043970979320  0.2500000000000000  0.2500000000000000   T   T   T
  0.5000518589895293  0.7500000000000000  0.2500000000000000   T   T   T
  0.5000515814423565  0.2500000000000000  0.7500000000000000   T   T   T
  0.5026942950868829  0.7500000000000000  0.7500000000000000   T   T   T
 
  0.00000000E+00  0.00000000E+00  0.00000000E+00
  0.00000000E+00  0.00000000E+00  0.00000000E+00
  0.00000000E+00  0.00000000E+00  0.00000000E+00
  0.00000000E+00  0.00000000E+00  0.00000000E+00
  0.00000000E+00  0.00000000E+00  0.00000000E+00
  0.00000000E+00  0.00000000E+00  0.00000000E+00
  0.00000000E+00  0.00000000E+00  0.00000000E+00
  0.00000000E+00  0.00000000E+00  0.00000000E+00
  0.00000000E+00  0.00000000E+00  0.00000000E+00
  0.00000000E+00  0.00000000E+00  0.00000000E+00
  0.00000000E+00  0.00000000E+00  0.00000000E+00
  0.00000000E+00  0.00000000E+00  0.00000000E+00
  0.00000000E+00  0.00000000E+00  0.00000000E+00
  0.00000000E+00  0.00000000E+00  0.00000000E+00
  0.00000000E+00  0.00000000E+00  0.00000000E+00
  0.00000000E+00  0.00000000E+00  0.00000000E+00
  0.00000000E+00  0.00000000E+00  0.00000000E+00
  0.00000000E+00  0.00000000E+00  0.00000000E+00
  0.00000000E+00  0.00000000E+00  0.00000000E+00
  0.00000000E+00  0.00000000E+00  0.00000000E+00
  0.00000000E+00  0.00000000E+00  0.00000000E+00
  0.00000000E+00  0.00000000E+00  0.00000000E+00
  0.00000000E+00  0.00000000E+00  0.00000000E+00
  0.00000000E+00  0.00000000E+00  0.00000000E+00
  0.00000000E+00  0.00000000E+00  0.00000000E+00
  0.00000000E+00  0.00000000E+00  0.00000000E+00
  0.00000000E+00  0.00000000E+00  0.00000000E+00
  0.00000000E+00  0.00000000E+00  0.00000000E+00
  0.00000000E+00  0.00000000E+00  0.00000000E+00
  0.00000000E+00  0.00000000E+00  0.00000000E+00
  0.00000000E+00  0.00000000E+00  0.00000000E+00
  0.00000000E+00  0.00000000E+00  0.00000000E+00
  0.00000000E+00  0.00000000E+00  0.00000000E+00
  0.00000000E+00  0.00000000E+00  0.00000000E+00
  0.00000000E+00  0.00000000E+00  0.00000000E+00
  0.00000000E+00  0.00000000E+00  0.00000000E+00
  0.00000000E+00  0.00000000E+00  0.00000000E+00
  0.00000000E+00  0.00000000E+00  0.00000000E+00
  0.00000000E+00  0.00000000E+00  0.00000000E+00
  0.00000000E+00  0.00000000E+00  0.00000000E+00
