MAPbI3-cubic                            
   1.00000000000000     
    12.6394395565677726    0.0000000000000000    0.0000000000000000
     0.0000000000000000   12.6455454901910027    0.0000000000000000
     0.0000000000000000    0.0000000000000000   12.6495890018939541
   Cs   Pb   Sn   I 
     8     3     5    24
Selective dynamics
Direct
  0.9969585231103792  0.9989905782613349  0.9989905431426607   T   T   T
  0.9969585231103792  0.9989905782613349  0.5010094568573393   T   T   T
  0.9969585231103792  0.5010094217386651  0.9989905431426607   T   T   T
  0.9969585231103792  0.5010094217386651  0.5010094568573393   T   T   T
  0.5030414768896208  0.9989905782613349  0.9989905431426607   T   T   T
  0.5030414768896208  0.9989905782613349  0.5010094568573393   T   T   T
  0.5030414768896208  0.5010094217386651  0.9989905431426607   T   T   T
  0.5030414768896208  0.5010094217386651  0.5010094568573393   T   T   T
  0.2500000000000000  0.2500000000000000  0.2500000000000000   T   T   T
  0.2500000000000000  0.2500000000000000  0.7500000000000000   T   T   T
  0.2500000000000000  0.7500000000000000  0.2500000000000000   T   T   T
  0.2500000000000000  0.7500000000000000  0.7500000000000000   T   T   T
  0.7500000000000000  0.2500000000000000  0.2500000000000000   T   T   T
  0.7500000000000000  0.2500000000000000  0.7500000000000000   T   T   T
  0.7500000000000000  0.7500000000000000  0.2500000000000000   T   T   T
  0.7500000000000000  0.7500000000000000  0.7500000000000000   T   T   T
  0.2500000000000000  0.2500000000000000  0.9999011598330583   T   T   T
  0.2500000000000000  0.7500000000000000  0.9972588584573288   T   T   T
  0.2500000000000000  0.2500000000000000  0.5000988401669417   T   T   T
  0.2500000000000000  0.7500000000000000  0.5027411415426712   T   T   T
  0.7500000000000000  0.2500000000000000  0.9998715106121665   T   T   T
  0.7500000000000000  0.7500000000000000  0.9998097462447078   T   T   T
  0.7500000000000000  0.2500000000000000  0.5001284893878335   T   T   T
  0.7500000000000000  0.7500000000000000  0.5001902537552922   T   T   T
  0.2500000000000000  0.9999004244377900  0.2500000000000000   T   T   T
  0.2500000000000000  0.5000995755622100  0.2500000000000000   T   T   T
  0.2500000000000000  0.9972582569963251  0.7500000000000000   T   T   T
  0.2500000000000000  0.5027417430036749  0.7500000000000000   T   T   T
  0.7500000000000000  0.9998717465623557  0.2500000000000000   T   T   T
  0.7500000000000000  0.5001282534376443  0.2500000000000000   T   T   T
  0.7500000000000000  0.9998090172142398  0.7500000000000000   T   T   T
  0.7500000000000000  0.5001909827857602  0.7500000000000000   T   T   T
  0.9969599571937593  0.2500000000000000  0.2500000000000000   T   T   T
  0.9970162085047889  0.7500000000000000  0.2500000000000000   T   T   T
  0.9970169119232111  0.2500000000000000  0.7500000000000000   T   T   T
  0.9994770629780021  0.7500000000000000  0.7500000000000000   T   T   T
  0.5030400428062407  0.2500000000000000  0.2500000000000000   T   T   T
  0.5029837914952111  0.7500000000000000  0.2500000000000000   T   T   T
  0.5029830880767889  0.2500000000000000  0.7500000000000000   T   T   T
  0.5005229370219979  0.7500000000000000  0.7500000000000000   T   T   T
 
  0.00000000E+00  0.00000000E+00  0.00000000E+00
  0.00000000E+00  0.00000000E+00  0.00000000E+00
  0.00000000E+00  0.00000000E+00  0.00000000E+00
  0.00000000E+00  0.00000000E+00  0.00000000E+00
  0.00000000E+00  0.00000000E+00  0.00000000E+00
  0.00000000E+00  0.00000000E+00  0.00000000E+00
  0.00000000E+00  0.00000000E+00  0.00000000E+00
  0.00000000E+00  0.00000000E+00  0.00000000E+00
  0.00000000E+00  0.00000000E+00  0.00000000E+00
  0.00000000E+00  0.00000000E+00  0.00000000E+00
  0.00000000E+00  0.00000000E+00  0.00000000E+00
  0.00000000E+00  0.00000000E+00  0.00000000E+00
  0.00000000E+00  0.00000000E+00  0.00000000E+00
  0.00000000E+00  0.00000000E+00  0.00000000E+00
  0.00000000E+00  0.00000000E+00  0.00000000E+00
  0.00000000E+00  0.00000000E+00  0.00000000E+00
  0.00000000E+00  0.00000000E+00  0.00000000E+00
  0.00000000E+00  0.00000000E+00  0.00000000E+00
  0.00000000E+00  0.00000000E+00  0.00000000E+00
  0.00000000E+00  0.00000000E+00  0.00000000E+00
  0.00000000E+00  0.00000000E+00  0.00000000E+00
  0.00000000E+00  0.00000000E+00  0.00000000E+00
  0.00000000E+00  0.00000000E+00  0.00000000E+00
  0.00000000E+00  0.00000000E+00  0.00000000E+00
  0.00000000E+00  0.00000000E+00  0.00000000E+00
  0.00000000E+00  0.00000000E+00  0.00000000E+00
  0.00000000E+00  0.00000000E+00  0.00000000E+00
  0.00000000E+00  0.00000000E+00  0.00000000E+00
  0.00000000E+00  0.00000000E+00  0.00000000E+00
  0.00000000E+00  0.00000000E+00  0.00000000E+00
  0.00000000E+00  0.00000000E+00  0.00000000E+00
  0.00000000E+00  0.00000000E+00  0.00000000E+00
  0.00000000E+00  0.00000000E+00  0.00000000E+00
  0.00000000E+00  0.00000000E+00  0.00000000E+00
  0.00000000E+00  0.00000000E+00  0.00000000E+00
  0.00000000E+00  0.00000000E+00  0.00000000E+00
  0.00000000E+00  0.00000000E+00  0.00000000E+00
  0.00000000E+00  0.00000000E+00  0.00000000E+00
  0.00000000E+00  0.00000000E+00  0.00000000E+00
  0.00000000E+00  0.00000000E+00  0.00000000E+00
