MAPbI3-cubic                            
   1.00000000000000     
    12.6117589277138258    0.0000000000000000    0.0000000000000000
     0.0000000000000000   12.6125926751480240    0.0000000000000000
     0.0000000000000000    0.0000000000000000   12.6133940108764087
   Cs   Pb   Sn   I 
     8     2     6    24
Selective dynamics
Direct
  0.0000000000000000  0.0000000000000000  0.0000000000000000   T   T   T
  0.0000000000000000  0.0000000000000000  0.5000000000000000   T   T   T
  0.0000000000000000  0.5000000000000000  0.0000000000000000   T   T   T
  0.0000000000000000  0.5000000000000000  0.5000000000000000   T   T   T
  0.5000000000000000  0.0000000000000000  0.0000000000000000   T   T   T
  0.5000000000000000  0.0000000000000000  0.5000000000000000   T   T   T
  0.5000000000000000  0.5000000000000000  0.0000000000000000   T   T   T
  0.5000000000000000  0.5000000000000000  0.5000000000000000   T   T   T
  0.2500000000000000  0.2500000000000000  0.2500000000000000   T   T   T
  0.7500000000000000  0.7500000000000000  0.7500000000000000   T   T   T
  0.2500000000000000  0.2500000000000000  0.7500000000000000   T   T   T
  0.2500000000000000  0.7500000000000000  0.2500000000000000   T   T   T
  0.2500000000000000  0.7500000000000000  0.7500000000000000   T   T   T
  0.7500000000000000  0.2500000000000000  0.2500000000000000   T   T   T
  0.7500000000000000  0.2500000000000000  0.7500000000000000   T   T   T
  0.7500000000000000  0.7500000000000000  0.2500000000000000   T   T   T
  0.2500000000000000  0.2500000000000000  0.9974506845509694   T   T   T
  0.2500000000000000  0.7500000000000000  0.9999997281123996   T   T   T
  0.2500000000000000  0.2500000000000000  0.5025493154490306   T   T   T
  0.2500000000000000  0.7500000000000000  0.5000002718876004   T   T   T
  0.7500000000000000  0.2500000000000000  0.0000002718876004   T   T   T
  0.7500000000000000  0.7500000000000000  0.0025493154490306   T   T   T
  0.7500000000000000  0.2500000000000000  0.4999997281123996   T   T   T
  0.7500000000000000  0.7500000000000000  0.4974506845509694   T   T   T
  0.2500000000000000  0.9974531426916116  0.2500000000000000   T   T   T
  0.2500000000000000  0.5025468573083884  0.2500000000000000   T   T   T
  0.2500000000000000  0.9999994429199077  0.7500000000000000   T   T   T
  0.2500000000000000  0.5000005570800923  0.7500000000000000   T   T   T
  0.7500000000000000  0.0000005570800923  0.2500000000000000   T   T   T
  0.7500000000000000  0.4999994429199077  0.2500000000000000   T   T   T
  0.7500000000000000  0.0025468573083884  0.7500000000000000   T   T   T
  0.7500000000000000  0.4974531426916116  0.7500000000000000   T   T   T
  0.9974557838764468  0.2500000000000000  0.2500000000000000   T   T   T
  0.0000002362361684  0.7500000000000000  0.2500000000000000   T   T   T
  0.9999997637638316  0.2500000000000000  0.7500000000000000   T   T   T
  0.0025442161235532  0.7500000000000000  0.7500000000000000   T   T   T
  0.5025442161235532  0.2500000000000000  0.2500000000000000   T   T   T
  0.4999997637638316  0.7500000000000000  0.2500000000000000   T   T   T
  0.5000002362361684  0.2500000000000000  0.7500000000000000   T   T   T
  0.4974557838764468  0.7500000000000000  0.7500000000000000   T   T   T
 
  0.00000000E+00  0.00000000E+00  0.00000000E+00
  0.00000000E+00  0.00000000E+00  0.00000000E+00
  0.00000000E+00  0.00000000E+00  0.00000000E+00
  0.00000000E+00  0.00000000E+00  0.00000000E+00
  0.00000000E+00  0.00000000E+00  0.00000000E+00
  0.00000000E+00  0.00000000E+00  0.00000000E+00
  0.00000000E+00  0.00000000E+00  0.00000000E+00
  0.00000000E+00  0.00000000E+00  0.00000000E+00
  0.00000000E+00  0.00000000E+00  0.00000000E+00
  0.00000000E+00  0.00000000E+00  0.00000000E+00
  0.00000000E+00  0.00000000E+00  0.00000000E+00
  0.00000000E+00  0.00000000E+00  0.00000000E+00
  0.00000000E+00  0.00000000E+00  0.00000000E+00
  0.00000000E+00  0.00000000E+00  0.00000000E+00
  0.00000000E+00  0.00000000E+00  0.00000000E+00
  0.00000000E+00  0.00000000E+00  0.00000000E+00
  0.00000000E+00  0.00000000E+00  0.00000000E+00
  0.00000000E+00  0.00000000E+00  0.00000000E+00
  0.00000000E+00  0.00000000E+00  0.00000000E+00
  0.00000000E+00  0.00000000E+00  0.00000000E+00
  0.00000000E+00  0.00000000E+00  0.00000000E+00
  0.00000000E+00  0.00000000E+00  0.00000000E+00
  0.00000000E+00  0.00000000E+00  0.00000000E+00
  0.00000000E+00  0.00000000E+00  0.00000000E+00
  0.00000000E+00  0.00000000E+00  0.00000000E+00
  0.00000000E+00  0.00000000E+00  0.00000000E+00
  0.00000000E+00  0.00000000E+00  0.00000000E+00
  0.00000000E+00  0.00000000E+00  0.00000000E+00
  0.00000000E+00  0.00000000E+00  0.00000000E+00
  0.00000000E+00  0.00000000E+00  0.00000000E+00
  0.00000000E+00  0.00000000E+00  0.00000000E+00
  0.00000000E+00  0.00000000E+00  0.00000000E+00
  0.00000000E+00  0.00000000E+00  0.00000000E+00
  0.00000000E+00  0.00000000E+00  0.00000000E+00
  0.00000000E+00  0.00000000E+00  0.00000000E+00
  0.00000000E+00  0.00000000E+00  0.00000000E+00
  0.00000000E+00  0.00000000E+00  0.00000000E+00
  0.00000000E+00  0.00000000E+00  0.00000000E+00
  0.00000000E+00  0.00000000E+00  0.00000000E+00
  0.00000000E+00  0.00000000E+00  0.00000000E+00
