MAPbI3-cubic                            
   1.00000000000000     
    12.6761108043421391   -0.0000000000000000    0.0000000000000000
     0.0000000000000000   12.6759743761161463    0.0000000000000000
     0.0000000000000000    0.0000000000000000   12.6762175762429035
   Cs   Pb   Sn   I 
     8     4     4    24
Selective dynamics
Direct
  0.9995700645941684  0.9995686565894536  0.0000001720371380   T   T   T
  0.9995700645941684  0.9995686565894536  0.4999998279628620   T   T   T
  0.9995700645941684  0.5004313434105464  0.0000001720371380   T   T   T
  0.9995700645941684  0.5004313434105464  0.4999998279628620   T   T   T
  0.5004299354058316  0.9995686565894536  0.0000001720371380   T   T   T
  0.5004299354058316  0.9995686565894536  0.4999998279628620   T   T   T
  0.5004299354058316  0.5004313434105464  0.0000001720371380   T   T   T
  0.5004299354058316  0.5004313434105464  0.4999998279628620   T   T   T
  0.2500000000000000  0.2500000000000000  0.2500000000000000   T   T   T
  0.2500000000000000  0.2500000000000000  0.7500000000000000   T   T   T
  0.2500000000000000  0.7500000000000000  0.2500000000000000   T   T   T
  0.7500000000000000  0.2500000000000000  0.7500000000000000   T   T   T
  0.7500000000000000  0.7500000000000000  0.2500000000000000   T   T   T
  0.7500000000000000  0.7500000000000000  0.7500000000000000   T   T   T
  0.2500000000000000  0.7500000000000000  0.7500000000000000   T   T   T
  0.7500000000000000  0.2500000000000000  0.2500000000000000   T   T   T
  0.2500000000000000  0.2500000000000000  0.9999998782767903   T   T   T
  0.2500000000000000  0.7500000000000000  0.9974124306368073   T   T   T
  0.2500000000000000  0.2500000000000000  0.5000001217232097   T   T   T
  0.2500000000000000  0.7500000000000000  0.5025875693631927   T   T   T
  0.7500000000000000  0.2500000000000000  0.0025871731469434   T   T   T
  0.7500000000000000  0.7500000000000000  0.0000000097131811   T   T   T
  0.7500000000000000  0.2500000000000000  0.4974128268530565   T   T   T
  0.7500000000000000  0.7500000000000000  0.4999999902868189   T   T   T
  0.2500000000000000  0.9998560026604794  0.2500000000000000   T   T   T
  0.2500000000000000  0.5001439973395206  0.2500000000000000   T   T   T
  0.2500000000000000  0.9972567820837032  0.7500000000000000   T   T   T
  0.2500000000000000  0.5027432179162968  0.7500000000000000   T   T   T
  0.7500000000000000  0.9998289470126654  0.2500000000000000   T   T   T
  0.7500000000000000  0.5001710529873346  0.2500000000000000   T   T   T
  0.7500000000000000  0.9972516081298129  0.7500000000000000   T   T   T
  0.7500000000000000  0.5027483918701871  0.7500000000000000   T   T   T
  0.9972571921462252  0.2500000000000000  0.2500000000000000   T   T   T
  0.9972506089090413  0.7500000000000000  0.2500000000000000   T   T   T
  0.9998571786860736  0.2500000000000000  0.7500000000000000   T   T   T
  0.9998288970619087  0.7500000000000000  0.7500000000000000   T   T   T
  0.5027428078537748  0.2500000000000000  0.2500000000000000   T   T   T
  0.5027493910909587  0.7500000000000000  0.2500000000000000   T   T   T
  0.5001428213139264  0.2500000000000000  0.7500000000000000   T   T   T
  0.5001711029380913  0.7500000000000000  0.7500000000000000   T   T   T
 
  0.00000000E+00  0.00000000E+00  0.00000000E+00
  0.00000000E+00  0.00000000E+00  0.00000000E+00
  0.00000000E+00  0.00000000E+00  0.00000000E+00
  0.00000000E+00  0.00000000E+00  0.00000000E+00
  0.00000000E+00  0.00000000E+00  0.00000000E+00
  0.00000000E+00  0.00000000E+00  0.00000000E+00
  0.00000000E+00  0.00000000E+00  0.00000000E+00
  0.00000000E+00  0.00000000E+00  0.00000000E+00
  0.00000000E+00  0.00000000E+00  0.00000000E+00
  0.00000000E+00  0.00000000E+00  0.00000000E+00
  0.00000000E+00  0.00000000E+00  0.00000000E+00
  0.00000000E+00  0.00000000E+00  0.00000000E+00
  0.00000000E+00  0.00000000E+00  0.00000000E+00
  0.00000000E+00  0.00000000E+00  0.00000000E+00
  0.00000000E+00  0.00000000E+00  0.00000000E+00
  0.00000000E+00  0.00000000E+00  0.00000000E+00
  0.00000000E+00  0.00000000E+00  0.00000000E+00
  0.00000000E+00  0.00000000E+00  0.00000000E+00
  0.00000000E+00  0.00000000E+00  0.00000000E+00
  0.00000000E+00  0.00000000E+00  0.00000000E+00
  0.00000000E+00  0.00000000E+00  0.00000000E+00
  0.00000000E+00  0.00000000E+00  0.00000000E+00
  0.00000000E+00  0.00000000E+00  0.00000000E+00
  0.00000000E+00  0.00000000E+00  0.00000000E+00
  0.00000000E+00  0.00000000E+00  0.00000000E+00
  0.00000000E+00  0.00000000E+00  0.00000000E+00
  0.00000000E+00  0.00000000E+00  0.00000000E+00
  0.00000000E+00  0.00000000E+00  0.00000000E+00
  0.00000000E+00  0.00000000E+00  0.00000000E+00
  0.00000000E+00  0.00000000E+00  0.00000000E+00
  0.00000000E+00  0.00000000E+00  0.00000000E+00
  0.00000000E+00  0.00000000E+00  0.00000000E+00
  0.00000000E+00  0.00000000E+00  0.00000000E+00
  0.00000000E+00  0.00000000E+00  0.00000000E+00
  0.00000000E+00  0.00000000E+00  0.00000000E+00
  0.00000000E+00  0.00000000E+00  0.00000000E+00
  0.00000000E+00  0.00000000E+00  0.00000000E+00
  0.00000000E+00  0.00000000E+00  0.00000000E+00
  0.00000000E+00  0.00000000E+00  0.00000000E+00
  0.00000000E+00  0.00000000E+00  0.00000000E+00
