MAPbI3-cubic                            
   1.00000000000000     
    12.6645877547892809    0.0000000000000000    0.0000000000000000
     0.0000000000000000   12.6658479805217130    0.0000000000000000
     0.0000000000000000    0.0000000000000000   12.6715222537481207
   Cs   Pb   Sn   I 
     8     4     4    24
Selective dynamics
Direct
  0.0000000000000000  0.0000000000000000  0.0000000000000000   T   T   T
  0.0000000000000000  0.0000000000000000  0.5000000000000000   T   T   T
  0.0000000000000000  0.5000000000000000  0.0000000000000000   T   T   T
  0.0000000000000000  0.5000000000000000  0.5000000000000000   T   T   T
  0.5000000000000000  0.0000000000000000  0.0000000000000000   T   T   T
  0.5000000000000000  0.0000000000000000  0.5000000000000000   T   T   T
  0.5000000000000000  0.5000000000000000  0.0000000000000000   T   T   T
  0.5000000000000000  0.5000000000000000  0.5000000000000000   T   T   T
  0.2500000000000000  0.2500000000000000  0.2500000000000000   T   T   T
  0.2500000000000000  0.2500000000000000  0.7500000000000000   T   T   T
  0.7500000000000000  0.7500000000000000  0.2500000000000000   T   T   T
  0.7500000000000000  0.7500000000000000  0.7500000000000000   T   T   T
  0.2500000000000000  0.7500000000000000  0.2500000000000000   T   T   T
  0.2500000000000000  0.7500000000000000  0.7500000000000000   T   T   T
  0.7500000000000000  0.2500000000000000  0.2500000000000000   T   T   T
  0.7500000000000000  0.2500000000000000  0.7500000000000000   T   T   T
  0.2500000000000000  0.2500000000000000  0.0000000000000000   T   T   T
  0.2500000000000000  0.7500000000000000  0.0000000000000000   T   T   T
  0.2500000000000000  0.2500000000000000  0.5000000000000000   T   T   T
  0.2500000000000000  0.7500000000000000  0.5000000000000000   T   T   T
  0.7500000000000000  0.2500000000000000  0.0000000000000000   T   T   T
  0.7500000000000000  0.7500000000000000  0.0000000000000000   T   T   T
  0.7500000000000000  0.2500000000000000  0.5000000000000000   T   T   T
  0.7500000000000000  0.7500000000000000  0.5000000000000000   T   T   T
  0.2500000000000000  0.9972742338276461  0.2500000000000000   T   T   T
  0.2500000000000000  0.5027257661723539  0.2500000000000000   T   T   T
  0.2500000000000000  0.9972742338276461  0.7500000000000000   T   T   T
  0.2500000000000000  0.5027257661723539  0.7500000000000000   T   T   T
  0.7500000000000000  0.0027257661723539  0.2500000000000000   T   T   T
  0.7500000000000000  0.4972742338276461  0.2500000000000000   T   T   T
  0.7500000000000000  0.0027257661723539  0.7500000000000000   T   T   T
  0.7500000000000000  0.4972742338276461  0.7500000000000000   T   T   T
  0.9972772285595326  0.2500000000000000  0.2500000000000000   T   T   T
  0.0027227714404674  0.7500000000000000  0.2500000000000000   T   T   T
  0.9972772285595326  0.2500000000000000  0.7500000000000000   T   T   T
  0.0027227714404674  0.7500000000000000  0.7500000000000000   T   T   T
  0.5027227714404674  0.2500000000000000  0.2500000000000000   T   T   T
  0.4972772285595326  0.7500000000000000  0.2500000000000000   T   T   T
  0.5027227714404674  0.2500000000000000  0.7500000000000000   T   T   T
  0.4972772285595326  0.7500000000000000  0.7500000000000000   T   T   T
 
  0.00000000E+00  0.00000000E+00  0.00000000E+00
  0.00000000E+00  0.00000000E+00  0.00000000E+00
  0.00000000E+00  0.00000000E+00  0.00000000E+00
  0.00000000E+00  0.00000000E+00  0.00000000E+00
  0.00000000E+00  0.00000000E+00  0.00000000E+00
  0.00000000E+00  0.00000000E+00  0.00000000E+00
  0.00000000E+00  0.00000000E+00  0.00000000E+00
  0.00000000E+00  0.00000000E+00  0.00000000E+00
  0.00000000E+00  0.00000000E+00  0.00000000E+00
  0.00000000E+00  0.00000000E+00  0.00000000E+00
  0.00000000E+00  0.00000000E+00  0.00000000E+00
  0.00000000E+00  0.00000000E+00  0.00000000E+00
  0.00000000E+00  0.00000000E+00  0.00000000E+00
  0.00000000E+00  0.00000000E+00  0.00000000E+00
  0.00000000E+00  0.00000000E+00  0.00000000E+00
  0.00000000E+00  0.00000000E+00  0.00000000E+00
  0.00000000E+00  0.00000000E+00  0.00000000E+00
  0.00000000E+00  0.00000000E+00  0.00000000E+00
  0.00000000E+00  0.00000000E+00  0.00000000E+00
  0.00000000E+00  0.00000000E+00  0.00000000E+00
  0.00000000E+00  0.00000000E+00  0.00000000E+00
  0.00000000E+00  0.00000000E+00  0.00000000E+00
  0.00000000E+00  0.00000000E+00  0.00000000E+00
  0.00000000E+00  0.00000000E+00  0.00000000E+00
  0.00000000E+00  0.00000000E+00  0.00000000E+00
  0.00000000E+00  0.00000000E+00  0.00000000E+00
  0.00000000E+00  0.00000000E+00  0.00000000E+00
  0.00000000E+00  0.00000000E+00  0.00000000E+00
  0.00000000E+00  0.00000000E+00  0.00000000E+00
  0.00000000E+00  0.00000000E+00  0.00000000E+00
  0.00000000E+00  0.00000000E+00  0.00000000E+00
  0.00000000E+00  0.00000000E+00  0.00000000E+00
  0.00000000E+00  0.00000000E+00  0.00000000E+00
  0.00000000E+00  0.00000000E+00  0.00000000E+00
  0.00000000E+00  0.00000000E+00  0.00000000E+00
  0.00000000E+00  0.00000000E+00  0.00000000E+00
  0.00000000E+00  0.00000000E+00  0.00000000E+00
  0.00000000E+00  0.00000000E+00  0.00000000E+00
  0.00000000E+00  0.00000000E+00  0.00000000E+00
  0.00000000E+00  0.00000000E+00  0.00000000E+00
