MAPbI3-cubic                            
   1.00000000000000     
    12.5854094931046667    0.0000000000000000    0.0000000000000000
     0.0000000000000000   12.5862407796320799    0.0000000000000000
     0.0000000000000000    0.0000000000000000   12.5870123688816680
   Cs   Pb   Sn   I 
     8     1     7    24
Selective dynamics
Direct
  0.9999661025067326  0.9999659843465523  0.9999658360542583   T   T   T
  0.9999661025067326  0.9999659843465523  0.5000341639457417   T   T   T
  0.9999661025067326  0.5000340156534477  0.9999658360542583   T   T   T
  0.9999661025067326  0.5000340156534477  0.5000341639457417   T   T   T
  0.5000338974932674  0.9999659843465523  0.9999658360542583   T   T   T
  0.5000338974932674  0.9999659843465523  0.5000341639457417   T   T   T
  0.5000338974932674  0.5000340156534477  0.9999658360542583   T   T   T
  0.5000338974932674  0.5000340156534477  0.5000341639457417   T   T   T
  0.2500000000000000  0.2500000000000000  0.2500000000000000   T   T   T
  0.2500000000000000  0.2500000000000000  0.7500000000000000   T   T   T
  0.2500000000000000  0.7500000000000000  0.2500000000000000   T   T   T
  0.2500000000000000  0.7500000000000000  0.7500000000000000   T   T   T
  0.7500000000000000  0.2500000000000000  0.2500000000000000   T   T   T
  0.7500000000000000  0.2500000000000000  0.7500000000000000   T   T   T
  0.7500000000000000  0.7500000000000000  0.2500000000000000   T   T   T
  0.7500000000000000  0.7500000000000000  0.7500000000000000   T   T   T
  0.2500000000000000  0.2500000000000000  0.9974080310584128   T   T   T
  0.2500000000000000  0.7500000000000000  0.9999469693464533   T   T   T
  0.2500000000000000  0.2500000000000000  0.5025919689415872   T   T   T
  0.2500000000000000  0.7500000000000000  0.5000530306535467   T   T   T
  0.7500000000000000  0.2500000000000000  0.9999472900429893   T   T   T
  0.7500000000000000  0.7500000000000000  0.9999961688719523   T   T   T
  0.7500000000000000  0.2500000000000000  0.5000527099570107   T   T   T
  0.7500000000000000  0.7500000000000000  0.5000038311280477   T   T   T
  0.2500000000000000  0.9974105106935056  0.2500000000000000   T   T   T
  0.2500000000000000  0.5025894893064944  0.2500000000000000   T   T   T
  0.2500000000000000  0.9999468240341045  0.7500000000000000   T   T   T
  0.2500000000000000  0.5000531759658955  0.7500000000000000   T   T   T
  0.7500000000000000  0.9999472787094064  0.2500000000000000   T   T   T
  0.7500000000000000  0.5000527212905936  0.2500000000000000   T   T   T
  0.7500000000000000  0.9999961784072582  0.7500000000000000   T   T   T
  0.7500000000000000  0.5000038215927418  0.7500000000000000   T   T   T
  0.9974132934718867  0.2500000000000000  0.2500000000000000   T   T   T
  0.9999470716286041  0.7500000000000000  0.2500000000000000   T   T   T
  0.9999468175999482  0.2500000000000000  0.7500000000000000   T   T   T
  0.9999961256948779  0.7500000000000000  0.7500000000000000   T   T   T
  0.5025867065281133  0.2500000000000000  0.2500000000000000   T   T   T
  0.5000529283713959  0.7500000000000000  0.2500000000000000   T   T   T
  0.5000531824000518  0.2500000000000000  0.7500000000000000   T   T   T
  0.5000038743051221  0.7500000000000000  0.7500000000000000   T   T   T
 
  0.00000000E+00  0.00000000E+00  0.00000000E+00
  0.00000000E+00  0.00000000E+00  0.00000000E+00
  0.00000000E+00  0.00000000E+00  0.00000000E+00
  0.00000000E+00  0.00000000E+00  0.00000000E+00
  0.00000000E+00  0.00000000E+00  0.00000000E+00
  0.00000000E+00  0.00000000E+00  0.00000000E+00
  0.00000000E+00  0.00000000E+00  0.00000000E+00
  0.00000000E+00  0.00000000E+00  0.00000000E+00
  0.00000000E+00  0.00000000E+00  0.00000000E+00
  0.00000000E+00  0.00000000E+00  0.00000000E+00
  0.00000000E+00  0.00000000E+00  0.00000000E+00
  0.00000000E+00  0.00000000E+00  0.00000000E+00
  0.00000000E+00  0.00000000E+00  0.00000000E+00
  0.00000000E+00  0.00000000E+00  0.00000000E+00
  0.00000000E+00  0.00000000E+00  0.00000000E+00
  0.00000000E+00  0.00000000E+00  0.00000000E+00
  0.00000000E+00  0.00000000E+00  0.00000000E+00
  0.00000000E+00  0.00000000E+00  0.00000000E+00
  0.00000000E+00  0.00000000E+00  0.00000000E+00
  0.00000000E+00  0.00000000E+00  0.00000000E+00
  0.00000000E+00  0.00000000E+00  0.00000000E+00
  0.00000000E+00  0.00000000E+00  0.00000000E+00
  0.00000000E+00  0.00000000E+00  0.00000000E+00
  0.00000000E+00  0.00000000E+00  0.00000000E+00
  0.00000000E+00  0.00000000E+00  0.00000000E+00
  0.00000000E+00  0.00000000E+00  0.00000000E+00
  0.00000000E+00  0.00000000E+00  0.00000000E+00
  0.00000000E+00  0.00000000E+00  0.00000000E+00
  0.00000000E+00  0.00000000E+00  0.00000000E+00
  0.00000000E+00  0.00000000E+00  0.00000000E+00
  0.00000000E+00  0.00000000E+00  0.00000000E+00
  0.00000000E+00  0.00000000E+00  0.00000000E+00
  0.00000000E+00  0.00000000E+00  0.00000000E+00
  0.00000000E+00  0.00000000E+00  0.00000000E+00
  0.00000000E+00  0.00000000E+00  0.00000000E+00
  0.00000000E+00  0.00000000E+00  0.00000000E+00
  0.00000000E+00  0.00000000E+00  0.00000000E+00
  0.00000000E+00  0.00000000E+00  0.00000000E+00
  0.00000000E+00  0.00000000E+00  0.00000000E+00
  0.00000000E+00  0.00000000E+00  0.00000000E+00
