MAPbI3-cubic                            
   1.00000000000000     
    12.6404844025844145    0.0000000000000000    0.0000000000000000
     0.0000000000000000   12.6410018681250591    0.0000000000000000
     0.0000000000000000    0.0000000000000000   12.6414881907228978
   Cs   Pb   Sn   I 
     8     3     5    24
Selective dynamics
Direct
  0.9999473809157777  0.9999472721081659  0.0000528111707254   T   T   T
  0.9999473809157777  0.9999472721081659  0.4999471888292746   T   T   T
  0.9999473809157777  0.5000527278918341  0.0000528111707254   T   T   T
  0.9999473809157777  0.5000527278918341  0.4999471888292746   T   T   T
  0.5000526190842223  0.9999472721081659  0.0000528111707254   T   T   T
  0.5000526190842223  0.9999472721081659  0.4999471888292746   T   T   T
  0.5000526190842223  0.5000527278918341  0.0000528111707254   T   T   T
  0.5000526190842223  0.5000527278918341  0.4999471888292746   T   T   T
  0.2500000000000000  0.2500000000000000  0.2500000000000000   T   T   T
  0.2500000000000000  0.7500000000000000  0.7500000000000000   T   T   T
  0.7500000000000000  0.2500000000000000  0.7500000000000000   T   T   T
  0.7500000000000000  0.7500000000000000  0.2500000000000000   T   T   T
  0.7500000000000000  0.7500000000000000  0.7500000000000000   T   T   T
  0.2500000000000000  0.2500000000000000  0.7500000000000000   T   T   T
  0.2500000000000000  0.7500000000000000  0.2500000000000000   T   T   T
  0.7500000000000000  0.2500000000000000  0.2500000000000000   T   T   T
  0.2500000000000000  0.2500000000000000  0.9975501723072782   T   T   T
  0.2500000000000000  0.7500000000000000  0.0025224625908606   T   T   T
  0.2500000000000000  0.2500000000000000  0.5024498276927218   T   T   T
  0.2500000000000000  0.7500000000000000  0.4974775374091394   T   T   T
  0.7500000000000000  0.2500000000000000  0.0025226206614022   T   T   T
  0.7500000000000000  0.7500000000000000  0.0001288433077633   T   T   T
  0.7500000000000000  0.2500000000000000  0.4974773793385978   T   T   T
  0.7500000000000000  0.7500000000000000  0.4998711566922367   T   T   T
  0.2500000000000000  0.9974791611933469  0.2500000000000000   T   T   T
  0.2500000000000000  0.5025208388066531  0.2500000000000000   T   T   T
  0.2500000000000000  0.0024478775059862  0.7500000000000000   T   T   T
  0.2500000000000000  0.4975521224940138  0.7500000000000000   T   T   T
  0.7500000000000000  0.9998707963047480  0.2500000000000000   T   T   T
  0.7500000000000000  0.5001292036952520  0.2500000000000000   T   T   T
  0.7500000000000000  0.9974787636763196  0.7500000000000000   T   T   T
  0.7500000000000000  0.5025212363236804  0.7500000000000000   T   T   T
  0.9974812038454459  0.2500000000000000  0.2500000000000000   T   T   T
  0.9998701957745766  0.7500000000000000  0.2500000000000000   T   T   T
  0.0024454827781781  0.2500000000000000  0.7500000000000000   T   T   T
  0.9974809902617494  0.7500000000000000  0.7500000000000000   T   T   T
  0.5025187961545541  0.2500000000000000  0.2500000000000000   T   T   T
  0.5001298042254234  0.7500000000000000  0.2500000000000000   T   T   T
  0.4975545172218219  0.2500000000000000  0.7500000000000000   T   T   T
  0.5025190097382506  0.7500000000000000  0.7500000000000000   T   T   T
 
  0.00000000E+00  0.00000000E+00  0.00000000E+00
  0.00000000E+00  0.00000000E+00  0.00000000E+00
  0.00000000E+00  0.00000000E+00  0.00000000E+00
  0.00000000E+00  0.00000000E+00  0.00000000E+00
  0.00000000E+00  0.00000000E+00  0.00000000E+00
  0.00000000E+00  0.00000000E+00  0.00000000E+00
  0.00000000E+00  0.00000000E+00  0.00000000E+00
  0.00000000E+00  0.00000000E+00  0.00000000E+00
  0.00000000E+00  0.00000000E+00  0.00000000E+00
  0.00000000E+00  0.00000000E+00  0.00000000E+00
  0.00000000E+00  0.00000000E+00  0.00000000E+00
  0.00000000E+00  0.00000000E+00  0.00000000E+00
  0.00000000E+00  0.00000000E+00  0.00000000E+00
  0.00000000E+00  0.00000000E+00  0.00000000E+00
  0.00000000E+00  0.00000000E+00  0.00000000E+00
  0.00000000E+00  0.00000000E+00  0.00000000E+00
  0.00000000E+00  0.00000000E+00  0.00000000E+00
  0.00000000E+00  0.00000000E+00  0.00000000E+00
  0.00000000E+00  0.00000000E+00  0.00000000E+00
  0.00000000E+00  0.00000000E+00  0.00000000E+00
  0.00000000E+00  0.00000000E+00  0.00000000E+00
  0.00000000E+00  0.00000000E+00  0.00000000E+00
  0.00000000E+00  0.00000000E+00  0.00000000E+00
  0.00000000E+00  0.00000000E+00  0.00000000E+00
  0.00000000E+00  0.00000000E+00  0.00000000E+00
  0.00000000E+00  0.00000000E+00  0.00000000E+00
  0.00000000E+00  0.00000000E+00  0.00000000E+00
  0.00000000E+00  0.00000000E+00  0.00000000E+00
  0.00000000E+00  0.00000000E+00  0.00000000E+00
  0.00000000E+00  0.00000000E+00  0.00000000E+00
  0.00000000E+00  0.00000000E+00  0.00000000E+00
  0.00000000E+00  0.00000000E+00  0.00000000E+00
  0.00000000E+00  0.00000000E+00  0.00000000E+00
  0.00000000E+00  0.00000000E+00  0.00000000E+00
  0.00000000E+00  0.00000000E+00  0.00000000E+00
  0.00000000E+00  0.00000000E+00  0.00000000E+00
  0.00000000E+00  0.00000000E+00  0.00000000E+00
  0.00000000E+00  0.00000000E+00  0.00000000E+00
  0.00000000E+00  0.00000000E+00  0.00000000E+00
  0.00000000E+00  0.00000000E+00  0.00000000E+00
