MASnI3-cubic                            
   1.00000000000000     
    12.5588821018135857    0.0000000000000000    0.0000000000000000
     0.0000000000000000   12.5583715224155501    0.0000000000000000
     0.0000000000000000    0.0000000000000000   12.5579443935593602
   Cs   Sn   I 
     8     8    24
Selective dynamics
Direct
 -0.0000000000000000 -0.0000000000000000  0.0000000000000000   T   T   T
 -0.0000000000000000 -0.0000000000000000  0.5000000000000000   T   T   T
 -0.0000000000000000  0.5000000000000000 -0.0000000000000000   T   T   T
 -0.0000000000000000  0.5000000000000000  0.5000000000000000   T   T   T
  0.5000000000000000 -0.0000000000000000  0.0000000000000000   T   T   T
  0.5000000000000000 -0.0000000000000000  0.5000000000000000   T   T   T
  0.5000000000000000  0.5000000000000000  0.0000000000000000   T   T   T
  0.5000000000000000  0.5000000000000000  0.5000000000000000   T   T   T
  0.2500000000000000  0.2500000000000000  0.2500000000000000   T   T   T
  0.2500000000000000  0.2500000000000000  0.7500000000000000   T   T   T
  0.2500000000000000  0.7500000000000000  0.2500000000000000   T   T   T
  0.2500000000000000  0.7500000000000000  0.7500000000000000   T   T   T
  0.7500000000000000  0.2500000000000000  0.2500000000000000   T   T   T
  0.7500000000000000  0.2500000000000000  0.7500000000000000   T   T   T
  0.7500000000000000  0.7500000000000000  0.2500000000000000   T   T   T
  0.7500000000000000  0.7500000000000000  0.7500000000000000   T   T   T
  0.2500000000000000  0.2500000000000000  0.0000000000000000   T   T   T
  0.2500000000000000  0.7500000000000000  0.0000000000000000   T   T   T
  0.2500000000000000  0.2500000000000000  0.5000000000000000   T   T   T
  0.2500000000000000  0.7500000000000000  0.5000000000000000   T   T   T
  0.7500000000000000  0.2500000000000000  0.0000000000000000   T   T   T
  0.7500000000000000  0.7500000000000000  0.0000000000000000   T   T   T
  0.7500000000000000  0.2500000000000000  0.5000000000000000   T   T   T
  0.7500000000000000  0.7500000000000000  0.5000000000000000   T   T   T
  0.2500000000000000  0.0000000000000000  0.2500000000000000   T   T   T
  0.2500000000000000  0.5000000000000000  0.2500000000000000   T   T   T
  0.2500000000000000 -0.0000000000000000  0.7500000000000000   T   T   T
  0.2500000000000000  0.5000000000000000  0.7500000000000000   T   T   T
  0.7500000000000000 -0.0000000000000000  0.2500000000000000   T   T   T
  0.7500000000000000  0.5000000000000000  0.2500000000000000   T   T   T
  0.7500000000000000  0.0000000000000000  0.7500000000000000   T   T   T
  0.7500000000000000  0.5000000000000000  0.7500000000000000   T   T   T
 -0.0000000000000000  0.2500000000000000  0.2500000000000000   T   T   T
 -0.0000000000000000  0.7500000000000000  0.2500000000000000   T   T   T
 -0.0000000000000000  0.2500000000000000  0.7500000000000000   T   T   T
 -0.0000000000000000  0.7500000000000000  0.7500000000000000   T   T   T
  0.5000000000000000  0.2500000000000000  0.2500000000000000   T   T   T
  0.5000000000000000  0.7500000000000000  0.2500000000000000   T   T   T
  0.5000000000000000  0.2500000000000000  0.7500000000000000   T   T   T
  0.5000000000000000  0.7500000000000000  0.7500000000000000   T   T   T
 
  0.00000000E+00  0.00000000E+00  0.00000000E+00
  0.00000000E+00  0.00000000E+00  0.00000000E+00
  0.00000000E+00  0.00000000E+00  0.00000000E+00
  0.00000000E+00  0.00000000E+00  0.00000000E+00
  0.00000000E+00  0.00000000E+00  0.00000000E+00
  0.00000000E+00  0.00000000E+00  0.00000000E+00
  0.00000000E+00  0.00000000E+00  0.00000000E+00
  0.00000000E+00  0.00000000E+00  0.00000000E+00
  0.00000000E+00  0.00000000E+00  0.00000000E+00
  0.00000000E+00  0.00000000E+00  0.00000000E+00
  0.00000000E+00  0.00000000E+00  0.00000000E+00
  0.00000000E+00  0.00000000E+00  0.00000000E+00
  0.00000000E+00  0.00000000E+00  0.00000000E+00
  0.00000000E+00  0.00000000E+00  0.00000000E+00
  0.00000000E+00  0.00000000E+00  0.00000000E+00
  0.00000000E+00  0.00000000E+00  0.00000000E+00
  0.00000000E+00  0.00000000E+00  0.00000000E+00
  0.00000000E+00  0.00000000E+00  0.00000000E+00
  0.00000000E+00  0.00000000E+00  0.00000000E+00
  0.00000000E+00  0.00000000E+00  0.00000000E+00
  0.00000000E+00  0.00000000E+00  0.00000000E+00
  0.00000000E+00  0.00000000E+00  0.00000000E+00
  0.00000000E+00  0.00000000E+00  0.00000000E+00
  0.00000000E+00  0.00000000E+00  0.00000000E+00
  0.00000000E+00  0.00000000E+00  0.00000000E+00
  0.00000000E+00  0.00000000E+00  0.00000000E+00
  0.00000000E+00  0.00000000E+00  0.00000000E+00
  0.00000000E+00  0.00000000E+00  0.00000000E+00
  0.00000000E+00  0.00000000E+00  0.00000000E+00
  0.00000000E+00  0.00000000E+00  0.00000000E+00
  0.00000000E+00  0.00000000E+00  0.00000000E+00
  0.00000000E+00  0.00000000E+00  0.00000000E+00
  0.00000000E+00  0.00000000E+00  0.00000000E+00
  0.00000000E+00  0.00000000E+00  0.00000000E+00
  0.00000000E+00  0.00000000E+00  0.00000000E+00
  0.00000000E+00  0.00000000E+00  0.00000000E+00
  0.00000000E+00  0.00000000E+00  0.00000000E+00
  0.00000000E+00  0.00000000E+00  0.00000000E+00
  0.00000000E+00  0.00000000E+00  0.00000000E+00
  0.00000000E+00  0.00000000E+00  0.00000000E+00
