MAPbI3-cubic                            
   1.00000000000000     
    12.6934216067070640    0.0000000000000000    0.0000000000000000
     0.0000000000000000   12.6942802903675620    0.0000000000000000
     0.0000000000000000    0.0000000000000000   12.6950893721022808
   Cs   Pb   Sn   I 
     8     5     3    24
Selective dynamics
Direct
  0.9999667390673537  0.9999658715448447  0.9999660674629425   T   T   T
  0.9999667390673537  0.9999658715448447  0.5000339325370575   T   T   T
  0.9999667390673537  0.5000341284551553  0.9999660674629425   T   T   T
  0.9999667390673537  0.5000341284551553  0.5000339325370575   T   T   T
  0.5000332609326463  0.9999658715448447  0.9999660674629425   T   T   T
  0.5000332609326463  0.9999658715448447  0.5000339325370575   T   T   T
  0.5000332609326463  0.5000341284551553  0.9999660674629425   T   T   T
  0.5000332609326463  0.5000341284551553  0.5000339325370575   T   T   T
  0.2500000000000000  0.2500000000000000  0.2500000000000000   T   T   T
  0.2500000000000000  0.2500000000000000  0.7500000000000000   T   T   T
  0.2500000000000000  0.7500000000000000  0.2500000000000000   T   T   T
  0.7500000000000000  0.2500000000000000  0.2500000000000000   T   T   T
  0.7500000000000000  0.7500000000000000  0.7500000000000000   T   T   T
  0.2500000000000000  0.7500000000000000  0.7500000000000000   T   T   T
  0.7500000000000000  0.2500000000000000  0.7500000000000000   T   T   T
  0.7500000000000000  0.7500000000000000  0.2500000000000000   T   T   T
  0.2500000000000000  0.2500000000000000  0.9999084940543810   T   T   T
  0.2500000000000000  0.7500000000000000  0.9974816115869345   T   T   T
  0.2500000000000000  0.2500000000000000  0.5000915059456190   T   T   T
  0.2500000000000000  0.7500000000000000  0.5025183884130655   T   T   T
  0.7500000000000000  0.2500000000000000  0.9974820497988119   T   T   T
  0.7500000000000000  0.7500000000000000  0.0024664800086498   T   T   T
  0.7500000000000000  0.2500000000000000  0.5025179502011881   T   T   T
  0.7500000000000000  0.7500000000000000  0.4975335199913502   T   T   T
  0.2500000000000000  0.9999080717850362  0.2500000000000000   T   T   T
  0.2500000000000000  0.5000919282149638  0.2500000000000000   T   T   T
  0.2500000000000000  0.9974839021857491  0.7500000000000000   T   T   T
  0.2500000000000000  0.5025160978142509  0.7500000000000000   T   T   T
  0.7500000000000000  0.9974844981613558  0.2500000000000000   T   T   T
  0.7500000000000000  0.5025155018386442  0.2500000000000000   T   T   T
  0.7500000000000000  0.0024636803455920  0.7500000000000000   T   T   T
  0.7500000000000000  0.4975363196544080  0.7500000000000000   T   T   T
  0.9999078480375800  0.2500000000000000  0.2500000000000000   T   T   T
  0.9974873035759018  0.7500000000000000  0.2500000000000000   T   T   T
  0.9974868476427190  0.2500000000000000  0.7500000000000000   T   T   T
  0.0024605344546416  0.7500000000000000  0.7500000000000000   T   T   T
  0.5000921519624200  0.2500000000000000  0.2500000000000000   T   T   T
  0.5025126964240982  0.7500000000000000  0.2500000000000000   T   T   T
  0.5025131523572810  0.2500000000000000  0.7500000000000000   T   T   T
  0.4975394655453584  0.7500000000000000  0.7500000000000000   T   T   T
 
  0.00000000E+00  0.00000000E+00  0.00000000E+00
  0.00000000E+00  0.00000000E+00  0.00000000E+00
  0.00000000E+00  0.00000000E+00  0.00000000E+00
  0.00000000E+00  0.00000000E+00  0.00000000E+00
  0.00000000E+00  0.00000000E+00  0.00000000E+00
  0.00000000E+00  0.00000000E+00  0.00000000E+00
  0.00000000E+00  0.00000000E+00  0.00000000E+00
  0.00000000E+00  0.00000000E+00  0.00000000E+00
  0.00000000E+00  0.00000000E+00  0.00000000E+00
  0.00000000E+00  0.00000000E+00  0.00000000E+00
  0.00000000E+00  0.00000000E+00  0.00000000E+00
  0.00000000E+00  0.00000000E+00  0.00000000E+00
  0.00000000E+00  0.00000000E+00  0.00000000E+00
  0.00000000E+00  0.00000000E+00  0.00000000E+00
  0.00000000E+00  0.00000000E+00  0.00000000E+00
  0.00000000E+00  0.00000000E+00  0.00000000E+00
  0.00000000E+00  0.00000000E+00  0.00000000E+00
  0.00000000E+00  0.00000000E+00  0.00000000E+00
  0.00000000E+00  0.00000000E+00  0.00000000E+00
  0.00000000E+00  0.00000000E+00  0.00000000E+00
  0.00000000E+00  0.00000000E+00  0.00000000E+00
  0.00000000E+00  0.00000000E+00  0.00000000E+00
  0.00000000E+00  0.00000000E+00  0.00000000E+00
  0.00000000E+00  0.00000000E+00  0.00000000E+00
  0.00000000E+00  0.00000000E+00  0.00000000E+00
  0.00000000E+00  0.00000000E+00  0.00000000E+00
  0.00000000E+00  0.00000000E+00  0.00000000E+00
  0.00000000E+00  0.00000000E+00  0.00000000E+00
  0.00000000E+00  0.00000000E+00  0.00000000E+00
  0.00000000E+00  0.00000000E+00  0.00000000E+00
  0.00000000E+00  0.00000000E+00  0.00000000E+00
  0.00000000E+00  0.00000000E+00  0.00000000E+00
  0.00000000E+00  0.00000000E+00  0.00000000E+00
  0.00000000E+00  0.00000000E+00  0.00000000E+00
  0.00000000E+00  0.00000000E+00  0.00000000E+00
  0.00000000E+00  0.00000000E+00  0.00000000E+00
  0.00000000E+00  0.00000000E+00  0.00000000E+00
  0.00000000E+00  0.00000000E+00  0.00000000E+00
  0.00000000E+00  0.00000000E+00  0.00000000E+00
  0.00000000E+00  0.00000000E+00  0.00000000E+00
