MAPbI3-cubic                            
   1.00000000000000     
    12.7254892455102393    0.0000000000000000    0.0000000000000000
     0.0000000000000000   12.7265538477108553    0.0000000000000000
     0.0000000000000000    0.0000000000000000   12.7273981535667620
   Cs   Pb   Sn   I 
     8     6     2    24
Selective dynamics
Direct
  0.9999376710070322  0.0000000000000000  0.0000000000000000   T   T   T
  0.9999376710070322  0.0000000000000000  0.5000000000000000   T   T   T
  0.9999376710070322  0.5000000000000000  0.0000000000000000   T   T   T
  0.9999376710070322  0.5000000000000000  0.5000000000000000   T   T   T
  0.5000623289929678  0.0000000000000000  0.0000000000000000   T   T   T
  0.5000623289929678  0.0000000000000000  0.5000000000000000   T   T   T
  0.5000623289929678  0.5000000000000000  0.0000000000000000   T   T   T
  0.5000623289929678  0.5000000000000000  0.5000000000000000   T   T   T
  0.2500000000000000  0.2500000000000000  0.2500000000000000   T   T   T
  0.2500000000000000  0.2500000000000000  0.7500000000000000   T   T   T
  0.2500000000000000  0.7500000000000000  0.2500000000000000   T   T   T
  0.2500000000000000  0.7500000000000000  0.7500000000000000   T   T   T
  0.7500000000000000  0.2500000000000000  0.2500000000000000   T   T   T
  0.7500000000000000  0.7500000000000000  0.7500000000000000   T   T   T
  0.7500000000000000  0.2500000000000000  0.7500000000000000   T   T   T
  0.7500000000000000  0.7500000000000000  0.2500000000000000   T   T   T
  0.2500000000000000  0.2500000000000000  0.9999577099970907   T   T   T
  0.2500000000000000  0.7500000000000000  0.0000422900029093   T   T   T
  0.2500000000000000  0.2500000000000000  0.5000422900029093   T   T   T
  0.2500000000000000  0.7500000000000000  0.4999577099970907   T   T   T
  0.7500000000000000  0.2500000000000000  0.9975546870367040   T   T   T
  0.7500000000000000  0.7500000000000000  0.0024453129632960   T   T   T
  0.7500000000000000  0.2500000000000000  0.5024453129632960   T   T   T
  0.7500000000000000  0.7500000000000000  0.4975546870367040   T   T   T
  0.2500000000000000  0.9999577942796947  0.2500000000000000   T   T   T
  0.2500000000000000  0.5000422057203053  0.2500000000000000   T   T   T
  0.2500000000000000  0.0000422057203053  0.7500000000000000   T   T   T
  0.2500000000000000  0.4999577942796947  0.7500000000000000   T   T   T
  0.7500000000000000  0.9975579173474145  0.2500000000000000   T   T   T
  0.7500000000000000  0.5024420826525855  0.2500000000000000   T   T   T
  0.7500000000000000  0.0024420826525855  0.7500000000000000   T   T   T
  0.7500000000000000  0.4975579173474145  0.7500000000000000   T   T   T
  0.9999073557521214  0.2500000000000000  0.2500000000000000   T   T   T
  0.9975106757660654  0.7500000000000000  0.2500000000000000   T   T   T
  0.9975106757660654  0.2500000000000000  0.7500000000000000   T   T   T
  0.9999073557521214  0.7500000000000000  0.7500000000000000   T   T   T
  0.5000926442478786  0.2500000000000000  0.2500000000000000   T   T   T
  0.5024893242339346  0.7500000000000000  0.2500000000000000   T   T   T
  0.5024893242339346  0.2500000000000000  0.7500000000000000   T   T   T
  0.5000926442478786  0.7500000000000000  0.7500000000000000   T   T   T
 
  0.00000000E+00  0.00000000E+00  0.00000000E+00
  0.00000000E+00  0.00000000E+00  0.00000000E+00
  0.00000000E+00  0.00000000E+00  0.00000000E+00
  0.00000000E+00  0.00000000E+00  0.00000000E+00
  0.00000000E+00  0.00000000E+00  0.00000000E+00
  0.00000000E+00  0.00000000E+00  0.00000000E+00
  0.00000000E+00  0.00000000E+00  0.00000000E+00
  0.00000000E+00  0.00000000E+00  0.00000000E+00
  0.00000000E+00  0.00000000E+00  0.00000000E+00
  0.00000000E+00  0.00000000E+00  0.00000000E+00
  0.00000000E+00  0.00000000E+00  0.00000000E+00
  0.00000000E+00  0.00000000E+00  0.00000000E+00
  0.00000000E+00  0.00000000E+00  0.00000000E+00
  0.00000000E+00  0.00000000E+00  0.00000000E+00
  0.00000000E+00  0.00000000E+00  0.00000000E+00
  0.00000000E+00  0.00000000E+00  0.00000000E+00
  0.00000000E+00  0.00000000E+00  0.00000000E+00
  0.00000000E+00  0.00000000E+00  0.00000000E+00
  0.00000000E+00  0.00000000E+00  0.00000000E+00
  0.00000000E+00  0.00000000E+00  0.00000000E+00
  0.00000000E+00  0.00000000E+00  0.00000000E+00
  0.00000000E+00  0.00000000E+00  0.00000000E+00
  0.00000000E+00  0.00000000E+00  0.00000000E+00
  0.00000000E+00  0.00000000E+00  0.00000000E+00
  0.00000000E+00  0.00000000E+00  0.00000000E+00
  0.00000000E+00  0.00000000E+00  0.00000000E+00
  0.00000000E+00  0.00000000E+00  0.00000000E+00
  0.00000000E+00  0.00000000E+00  0.00000000E+00
  0.00000000E+00  0.00000000E+00  0.00000000E+00
  0.00000000E+00  0.00000000E+00  0.00000000E+00
  0.00000000E+00  0.00000000E+00  0.00000000E+00
  0.00000000E+00  0.00000000E+00  0.00000000E+00
  0.00000000E+00  0.00000000E+00  0.00000000E+00
  0.00000000E+00  0.00000000E+00  0.00000000E+00
  0.00000000E+00  0.00000000E+00  0.00000000E+00
  0.00000000E+00  0.00000000E+00  0.00000000E+00
  0.00000000E+00  0.00000000E+00  0.00000000E+00
  0.00000000E+00  0.00000000E+00  0.00000000E+00
  0.00000000E+00  0.00000000E+00  0.00000000E+00
  0.00000000E+00  0.00000000E+00  0.00000000E+00
