MAPbI3-cubic                            
   1.00000000000000     
    12.6680613150076802    0.0000000000000000    0.0000000000000000
     0.0000000000000000   12.6713146463051238    0.0000000000000000
     0.0000000000000000    0.0000000000000000   12.6723368755865984
   Cs   Pb   Sn   I 
     8     4     4    24
Selective dynamics
Direct
  0.9999364315524275  0.0000014040186898  0.0000013544823290   T   T   T
  0.9999364315524275  0.0000014040186898  0.4999986455176710   T   T   T
  0.9999364315524275  0.4999985959813102  0.0000013544823290   T   T   T
  0.9999364315524275  0.4999985959813102  0.4999986455176710   T   T   T
  0.5000635684475725  0.0000014040186898  0.0000013544823290   T   T   T
  0.5000635684475725  0.0000014040186898  0.4999986455176710   T   T   T
  0.5000635684475725  0.4999985959813102  0.0000013544823290   T   T   T
  0.5000635684475725  0.4999985959813102  0.4999986455176710   T   T   T
  0.2500000000000000  0.2500000000000000  0.2500000000000000   T   T   T
  0.2500000000000000  0.2500000000000000  0.7500000000000000   T   T   T
  0.2500000000000000  0.7500000000000000  0.2500000000000000   T   T   T
  0.7500000000000000  0.7500000000000000  0.7500000000000000   T   T   T
  0.2500000000000000  0.7500000000000000  0.7500000000000000   T   T   T
  0.7500000000000000  0.2500000000000000  0.2500000000000000   T   T   T
  0.7500000000000000  0.2500000000000000  0.7500000000000000   T   T   T
  0.7500000000000000  0.7500000000000000  0.2500000000000000   T   T   T
  0.2500000000000000  0.2500000000000000  0.9999573718240597   T   T   T
  0.2500000000000000  0.7500000000000000  0.9974308073289038   T   T   T
  0.2500000000000000  0.2500000000000000  0.5000426281759403   T   T   T
  0.2500000000000000  0.7500000000000000  0.5025691926710962   T   T   T
  0.7500000000000000  0.2500000000000000  0.0000489396791608   T   T   T
  0.7500000000000000  0.7500000000000000  0.0025747451389861   T   T   T
  0.7500000000000000  0.2500000000000000  0.4999510603208392   T   T   T
  0.7500000000000000  0.7500000000000000  0.4974252548610139   T   T   T
  0.2500000000000000  0.9999570994669824  0.2500000000000000   T   T   T
  0.2500000000000000  0.5000429005330176  0.2500000000000000   T   T   T
  0.2500000000000000  0.9974331821597957  0.7500000000000000   T   T   T
  0.2500000000000000  0.5025668178402043  0.7500000000000000   T   T   T
  0.7500000000000000  0.0000492877969904  0.2500000000000000   T   T   T
  0.7500000000000000  0.4999507122030096  0.2500000000000000   T   T   T
  0.7500000000000000  0.0025723119591206  0.7500000000000000   T   T   T
  0.7500000000000000  0.4974276880408794  0.7500000000000000   T   T   T
  0.9972890205977833  0.2500000000000000  0.2500000000000000   T   T   T
  0.9973806324292411  0.7500000000000000  0.2500000000000000   T   T   T
  0.9973802099557219  0.2500000000000000  0.7500000000000000   T   T   T
  0.0025125619724733  0.7500000000000000  0.7500000000000000   T   T   T
  0.5027109794022167  0.2500000000000000  0.2500000000000000   T   T   T
  0.5026193675707589  0.7500000000000000  0.2500000000000000   T   T   T
  0.5026197900442781  0.2500000000000000  0.7500000000000000   T   T   T
  0.4974874380275267  0.7500000000000000  0.7500000000000000   T   T   T
 
  0.00000000E+00  0.00000000E+00  0.00000000E+00
  0.00000000E+00  0.00000000E+00  0.00000000E+00
  0.00000000E+00  0.00000000E+00  0.00000000E+00
  0.00000000E+00  0.00000000E+00  0.00000000E+00
  0.00000000E+00  0.00000000E+00  0.00000000E+00
  0.00000000E+00  0.00000000E+00  0.00000000E+00
  0.00000000E+00  0.00000000E+00  0.00000000E+00
  0.00000000E+00  0.00000000E+00  0.00000000E+00
  0.00000000E+00  0.00000000E+00  0.00000000E+00
  0.00000000E+00  0.00000000E+00  0.00000000E+00
  0.00000000E+00  0.00000000E+00  0.00000000E+00
  0.00000000E+00  0.00000000E+00  0.00000000E+00
  0.00000000E+00  0.00000000E+00  0.00000000E+00
  0.00000000E+00  0.00000000E+00  0.00000000E+00
  0.00000000E+00  0.00000000E+00  0.00000000E+00
  0.00000000E+00  0.00000000E+00  0.00000000E+00
  0.00000000E+00  0.00000000E+00  0.00000000E+00
  0.00000000E+00  0.00000000E+00  0.00000000E+00
  0.00000000E+00  0.00000000E+00  0.00000000E+00
  0.00000000E+00  0.00000000E+00  0.00000000E+00
  0.00000000E+00  0.00000000E+00  0.00000000E+00
  0.00000000E+00  0.00000000E+00  0.00000000E+00
  0.00000000E+00  0.00000000E+00  0.00000000E+00
  0.00000000E+00  0.00000000E+00  0.00000000E+00
  0.00000000E+00  0.00000000E+00  0.00000000E+00
  0.00000000E+00  0.00000000E+00  0.00000000E+00
  0.00000000E+00  0.00000000E+00  0.00000000E+00
  0.00000000E+00  0.00000000E+00  0.00000000E+00
  0.00000000E+00  0.00000000E+00  0.00000000E+00
  0.00000000E+00  0.00000000E+00  0.00000000E+00
  0.00000000E+00  0.00000000E+00  0.00000000E+00
  0.00000000E+00  0.00000000E+00  0.00000000E+00
  0.00000000E+00  0.00000000E+00  0.00000000E+00
  0.00000000E+00  0.00000000E+00  0.00000000E+00
  0.00000000E+00  0.00000000E+00  0.00000000E+00
  0.00000000E+00  0.00000000E+00  0.00000000E+00
  0.00000000E+00  0.00000000E+00  0.00000000E+00
  0.00000000E+00  0.00000000E+00  0.00000000E+00
  0.00000000E+00  0.00000000E+00  0.00000000E+00
  0.00000000E+00  0.00000000E+00  0.00000000E+00
