MAPbI3-cubic                            
   1.00000000000000     
    12.6954465593846919    0.0000000000000000    0.0000000000000000
     0.0000000000000000   12.6943750254011842    0.0000000000000000
     0.0000000000000000    0.0000000000000000   12.6954008488707117
   Cs   Pb   Sn   I 
     8     5     3    24
Selective dynamics
Direct
  0.9999694045964631  0.9999676492149803  0.9999675980523790   T   T   T
  0.9999694045964631  0.9999676492149803  0.5000324019476210   T   T   T
  0.9999694045964631  0.5000323507850197  0.9999675980523790   T   T   T
  0.9999694045964631  0.5000323507850197  0.5000324019476210   T   T   T
  0.5000305954035369  0.9999676492149803  0.9999675980523790   T   T   T
  0.5000305954035369  0.9999676492149803  0.5000324019476210   T   T   T
  0.5000305954035369  0.5000323507850197  0.9999675980523790   T   T   T
  0.5000305954035369  0.5000323507850197  0.5000324019476210   T   T   T
  0.2500000000000000  0.2500000000000000  0.2500000000000000   T   T   T
  0.2500000000000000  0.2500000000000000  0.7500000000000000   T   T   T
  0.2500000000000000  0.7500000000000000  0.2500000000000000   T   T   T
  0.7500000000000000  0.2500000000000000  0.7500000000000000   T   T   T
  0.7500000000000000  0.7500000000000000  0.2500000000000000   T   T   T
  0.2500000000000000  0.7500000000000000  0.7500000000000000   T   T   T
  0.7500000000000000  0.2500000000000000  0.2500000000000000   T   T   T
  0.7500000000000000  0.7500000000000000  0.7500000000000000   T   T   T
  0.2500000000000000  0.2500000000000000  0.9999955843468484   T   T   T
  0.2500000000000000  0.7500000000000000  0.9973075472897506   T   T   T
  0.2500000000000000  0.2500000000000000  0.5000044156531516   T   T   T
  0.2500000000000000  0.7500000000000000  0.5026924527102494   T   T   T
  0.7500000000000000  0.2500000000000000  0.0025932976726253   T   T   T
  0.7500000000000000  0.7500000000000000  0.9973503706228684   T   T   T
  0.7500000000000000  0.2500000000000000  0.4974067023273747   T   T   T
  0.7500000000000000  0.7500000000000000  0.5026496293771316   T   T   T
  0.2500000000000000  0.9999953940337321  0.2500000000000000   T   T   T
  0.2500000000000000  0.5000046059662679  0.2500000000000000   T   T   T
  0.2500000000000000  0.9973102355873991  0.7500000000000000   T   T   T
  0.2500000000000000  0.5026897644126009  0.7500000000000000   T   T   T
  0.7500000000000000  0.0025901926984560  0.2500000000000000   T   T   T
  0.7500000000000000  0.4974098073015440  0.2500000000000000   T   T   T
  0.7500000000000000  0.9973532299262260  0.7500000000000000   T   T   T
  0.7500000000000000  0.5026467700737740  0.7500000000000000   T   T   T
  0.9973614730378841  0.2500000000000000  0.2500000000000000   T   T   T
  0.9999535551397614  0.7500000000000000  0.2500000000000000   T   T   T
  0.9999534205143092  0.2500000000000000  0.7500000000000000   T   T   T
  0.9999961850403167  0.7500000000000000  0.7500000000000000   T   T   T
  0.5026385269621159  0.2500000000000000  0.2500000000000000   T   T   T
  0.5000464448602386  0.7500000000000000  0.2500000000000000   T   T   T
  0.5000465794856979  0.2500000000000000  0.7500000000000000   T   T   T
  0.5000038149596833  0.7500000000000000  0.7500000000000000   T   T   T
 
  0.00000000E+00  0.00000000E+00  0.00000000E+00
  0.00000000E+00  0.00000000E+00  0.00000000E+00
  0.00000000E+00  0.00000000E+00  0.00000000E+00
  0.00000000E+00  0.00000000E+00  0.00000000E+00
  0.00000000E+00  0.00000000E+00  0.00000000E+00
  0.00000000E+00  0.00000000E+00  0.00000000E+00
  0.00000000E+00  0.00000000E+00  0.00000000E+00
  0.00000000E+00  0.00000000E+00  0.00000000E+00
  0.00000000E+00  0.00000000E+00  0.00000000E+00
  0.00000000E+00  0.00000000E+00  0.00000000E+00
  0.00000000E+00  0.00000000E+00  0.00000000E+00
  0.00000000E+00  0.00000000E+00  0.00000000E+00
  0.00000000E+00  0.00000000E+00  0.00000000E+00
  0.00000000E+00  0.00000000E+00  0.00000000E+00
  0.00000000E+00  0.00000000E+00  0.00000000E+00
  0.00000000E+00  0.00000000E+00  0.00000000E+00
  0.00000000E+00  0.00000000E+00  0.00000000E+00
  0.00000000E+00  0.00000000E+00  0.00000000E+00
  0.00000000E+00  0.00000000E+00  0.00000000E+00
  0.00000000E+00  0.00000000E+00  0.00000000E+00
  0.00000000E+00  0.00000000E+00  0.00000000E+00
  0.00000000E+00  0.00000000E+00  0.00000000E+00
  0.00000000E+00  0.00000000E+00  0.00000000E+00
  0.00000000E+00  0.00000000E+00  0.00000000E+00
  0.00000000E+00  0.00000000E+00  0.00000000E+00
  0.00000000E+00  0.00000000E+00  0.00000000E+00
  0.00000000E+00  0.00000000E+00  0.00000000E+00
  0.00000000E+00  0.00000000E+00  0.00000000E+00
  0.00000000E+00  0.00000000E+00  0.00000000E+00
  0.00000000E+00  0.00000000E+00  0.00000000E+00
  0.00000000E+00  0.00000000E+00  0.00000000E+00
  0.00000000E+00  0.00000000E+00  0.00000000E+00
  0.00000000E+00  0.00000000E+00  0.00000000E+00
  0.00000000E+00  0.00000000E+00  0.00000000E+00
  0.00000000E+00  0.00000000E+00  0.00000000E+00
  0.00000000E+00  0.00000000E+00  0.00000000E+00
  0.00000000E+00  0.00000000E+00  0.00000000E+00
  0.00000000E+00  0.00000000E+00  0.00000000E+00
  0.00000000E+00  0.00000000E+00  0.00000000E+00
  0.00000000E+00  0.00000000E+00  0.00000000E+00
