MAPbI3-cubic                            
   1.00000000000000     
    12.6669895111317885    0.0000000000000000    0.0000000000000000
     0.0000000000000000   12.6703174651365540    0.0000000000000000
     0.0000000000000000    0.0000000000000000   12.6692153003061758
   Cs   Pb   Sn   I 
     8     4     4    24
Selective dynamics
Direct
  0.9973382994161426  0.0000000000000000  0.0000000000000000   T   T   T
  0.9973382994161426  0.0000000000000000  0.5000000000000000   T   T   T
  0.9973382994161426  0.5000000000000000  0.0000000000000000   T   T   T
  0.9973382994161426  0.5000000000000000  0.5000000000000000   T   T   T
  0.5026617005838574  0.0000000000000000  0.0000000000000000   T   T   T
  0.5026617005838574  0.0000000000000000  0.5000000000000000   T   T   T
  0.5026617005838574  0.5000000000000000  0.0000000000000000   T   T   T
  0.5026617005838574  0.5000000000000000  0.5000000000000000   T   T   T
  0.2500000000000000  0.2500000000000000  0.2500000000000000   T   T   T
  0.2500000000000000  0.2500000000000000  0.7500000000000000   T   T   T
  0.2500000000000000  0.7500000000000000  0.2500000000000000   T   T   T
  0.2500000000000000  0.7500000000000000  0.7500000000000000   T   T   T
  0.7500000000000000  0.2500000000000000  0.2500000000000000   T   T   T
  0.7500000000000000  0.2500000000000000  0.7500000000000000   T   T   T
  0.7500000000000000  0.7500000000000000  0.2500000000000000   T   T   T
  0.7500000000000000  0.7500000000000000  0.7500000000000000   T   T   T
  0.2500000000000000  0.2500000000000000  0.0000000000000000   T   T   T
  0.2500000000000000  0.7500000000000000  0.0000000000000000   T   T   T
  0.2500000000000000  0.2500000000000000  0.5000000000000000   T   T   T
  0.2500000000000000  0.7500000000000000  0.5000000000000000   T   T   T
  0.7500000000000000  0.2500000000000000  0.0000000000000000   T   T   T
  0.7500000000000000  0.7500000000000000  0.0000000000000000   T   T   T
  0.7500000000000000  0.2500000000000000  0.5000000000000000   T   T   T
  0.7500000000000000  0.7500000000000000  0.5000000000000000   T   T   T
  0.2500000000000000  0.0000000000000000  0.2500000000000000   T   T   T
  0.2500000000000000  0.5000000000000000  0.2500000000000000   T   T   T
  0.2500000000000000  0.0000000000000000  0.7500000000000000   T   T   T
  0.2500000000000000  0.5000000000000000  0.7500000000000000   T   T   T
  0.7500000000000000  0.0000000000000000  0.2500000000000000   T   T   T
  0.7500000000000000  0.5000000000000000  0.2500000000000000   T   T   T
  0.7500000000000000  0.0000000000000000  0.7500000000000000   T   T   T
  0.7500000000000000  0.5000000000000000  0.7500000000000000   T   T   T
  0.9969462996449607  0.2500000000000000  0.2500000000000000   T   T   T
  0.9969462996449607  0.7500000000000000  0.2500000000000000   T   T   T
  0.9969462996449607  0.2500000000000000  0.7500000000000000   T   T   T
  0.9969462996449607  0.7500000000000000  0.7500000000000000   T   T   T
  0.5030537003550393  0.2500000000000000  0.2500000000000000   T   T   T
  0.5030537003550393  0.7500000000000000  0.2500000000000000   T   T   T
  0.5030537003550393  0.2500000000000000  0.7500000000000000   T   T   T
  0.5030537003550393  0.7500000000000000  0.7500000000000000   T   T   T
 
  0.00000000E+00  0.00000000E+00  0.00000000E+00
  0.00000000E+00  0.00000000E+00  0.00000000E+00
  0.00000000E+00  0.00000000E+00  0.00000000E+00
  0.00000000E+00  0.00000000E+00  0.00000000E+00
  0.00000000E+00  0.00000000E+00  0.00000000E+00
  0.00000000E+00  0.00000000E+00  0.00000000E+00
  0.00000000E+00  0.00000000E+00  0.00000000E+00
  0.00000000E+00  0.00000000E+00  0.00000000E+00
  0.00000000E+00  0.00000000E+00  0.00000000E+00
  0.00000000E+00  0.00000000E+00  0.00000000E+00
  0.00000000E+00  0.00000000E+00  0.00000000E+00
  0.00000000E+00  0.00000000E+00  0.00000000E+00
  0.00000000E+00  0.00000000E+00  0.00000000E+00
  0.00000000E+00  0.00000000E+00  0.00000000E+00
  0.00000000E+00  0.00000000E+00  0.00000000E+00
  0.00000000E+00  0.00000000E+00  0.00000000E+00
  0.00000000E+00  0.00000000E+00  0.00000000E+00
  0.00000000E+00  0.00000000E+00  0.00000000E+00
  0.00000000E+00  0.00000000E+00  0.00000000E+00
  0.00000000E+00  0.00000000E+00  0.00000000E+00
  0.00000000E+00  0.00000000E+00  0.00000000E+00
  0.00000000E+00  0.00000000E+00  0.00000000E+00
  0.00000000E+00  0.00000000E+00  0.00000000E+00
  0.00000000E+00  0.00000000E+00  0.00000000E+00
  0.00000000E+00  0.00000000E+00  0.00000000E+00
  0.00000000E+00  0.00000000E+00  0.00000000E+00
  0.00000000E+00  0.00000000E+00  0.00000000E+00
  0.00000000E+00  0.00000000E+00  0.00000000E+00
  0.00000000E+00  0.00000000E+00  0.00000000E+00
  0.00000000E+00  0.00000000E+00  0.00000000E+00
  0.00000000E+00  0.00000000E+00  0.00000000E+00
  0.00000000E+00  0.00000000E+00  0.00000000E+00
  0.00000000E+00  0.00000000E+00  0.00000000E+00
  0.00000000E+00  0.00000000E+00  0.00000000E+00
  0.00000000E+00  0.00000000E+00  0.00000000E+00
  0.00000000E+00  0.00000000E+00  0.00000000E+00
  0.00000000E+00  0.00000000E+00  0.00000000E+00
  0.00000000E+00  0.00000000E+00  0.00000000E+00
  0.00000000E+00  0.00000000E+00  0.00000000E+00
  0.00000000E+00  0.00000000E+00  0.00000000E+00
