MAPbI3-cubic                            
   1.00000000000000     
    12.6204213591868637    0.0000000000000000    0.0000000000000000
     0.0000000000000000   12.6230302112910344    0.0000000000000000
     0.0000000000000000    0.0000000000000000   12.6282676539969803
   Cs   Pb   Sn   I 
     8     2     6    24
Selective dynamics
Direct
  0.9993393022576014  0.9993391255400574  0.0000000000000000   T   T   T
  0.9993393022576014  0.9993391255400574  0.5000000000000000   T   T   T
  0.9993393022576014  0.5006608744599426 -0.0000000000000000   T   T   T
  0.9993393022576014  0.5006608744599426  0.5000000000000000   T   T   T
  0.5006606977423986  0.9993391255400574 -0.0000000000000000   T   T   T
  0.5006606977423986  0.9993391255400574  0.5000000000000000   T   T   T
  0.5006606977423986  0.5006608744599426  0.0000000000000000   T   T   T
  0.5006606977423986  0.5006608744599426  0.5000000000000000   T   T   T
  0.2500000000000000  0.2500000000000000  0.2500000000000000   T   T   T
  0.2500000000000000  0.2500000000000000  0.7500000000000000   T   T   T
  0.2500000000000000  0.7500000000000000  0.2500000000000000   T   T   T
  0.2500000000000000  0.7500000000000000  0.7500000000000000   T   T   T
  0.7500000000000000  0.2500000000000000  0.2500000000000000   T   T   T
  0.7500000000000000  0.2500000000000000  0.7500000000000000   T   T   T
  0.7500000000000000  0.7500000000000000  0.2500000000000000   T   T   T
  0.7500000000000000  0.7500000000000000  0.7500000000000000   T   T   T
  0.2500000000000000  0.2500000000000000 -0.0000000000000000   T   T   T
  0.2500000000000000  0.7500000000000000 -0.0000000000000000   T   T   T
  0.2500000000000000  0.2500000000000000  0.5000000000000000   T   T   T
  0.2500000000000000  0.7500000000000000  0.5000000000000000   T   T   T
  0.7500000000000000  0.2500000000000000 -0.0000000000000000   T   T   T
  0.7500000000000000  0.7500000000000000 -0.0000000000000000   T   T   T
  0.7500000000000000  0.2500000000000000  0.5000000000000000   T   T   T
  0.7500000000000000  0.7500000000000000  0.5000000000000000   T   T   T
  0.2500000000000000  0.9971986608598521  0.2500000000000000   T   T   T
  0.2500000000000000  0.5028013391401479  0.2500000000000000   T   T   T
  0.2500000000000000  0.9971986608598521  0.7500000000000000   T   T   T
  0.2500000000000000  0.5028013391401479  0.7500000000000000   T   T   T
  0.7500000000000000  0.9998587229461693  0.2500000000000000   T   T   T
  0.7500000000000000  0.5001412770538307  0.2500000000000000   T   T   T
  0.7500000000000000  0.9998587229461693  0.7500000000000000   T   T   T
  0.7500000000000000  0.5001412770538307  0.7500000000000000   T   T   T
  0.9971992645780942  0.2500000000000000  0.2500000000000000   T   T   T
  0.9998588058424159  0.7500000000000000  0.2500000000000000   T   T   T
  0.9971992645780942  0.2500000000000000  0.7500000000000000   T   T   T
  0.9998588058424159  0.7500000000000000  0.7500000000000000   T   T   T
  0.5028007354219058  0.2500000000000000  0.2500000000000000   T   T   T
  0.5001411941575841  0.7500000000000000  0.2500000000000000   T   T   T
  0.5028007354219058  0.2500000000000000  0.7500000000000000   T   T   T
  0.5001411941575841  0.7500000000000000  0.7500000000000000   T   T   T
 
  0.00000000E+00  0.00000000E+00  0.00000000E+00
  0.00000000E+00  0.00000000E+00  0.00000000E+00
  0.00000000E+00  0.00000000E+00  0.00000000E+00
  0.00000000E+00  0.00000000E+00  0.00000000E+00
  0.00000000E+00  0.00000000E+00  0.00000000E+00
  0.00000000E+00  0.00000000E+00  0.00000000E+00
  0.00000000E+00  0.00000000E+00  0.00000000E+00
  0.00000000E+00  0.00000000E+00  0.00000000E+00
  0.00000000E+00  0.00000000E+00  0.00000000E+00
  0.00000000E+00  0.00000000E+00  0.00000000E+00
  0.00000000E+00  0.00000000E+00  0.00000000E+00
  0.00000000E+00  0.00000000E+00  0.00000000E+00
  0.00000000E+00  0.00000000E+00  0.00000000E+00
  0.00000000E+00  0.00000000E+00  0.00000000E+00
  0.00000000E+00  0.00000000E+00  0.00000000E+00
  0.00000000E+00  0.00000000E+00  0.00000000E+00
  0.00000000E+00  0.00000000E+00  0.00000000E+00
  0.00000000E+00  0.00000000E+00  0.00000000E+00
  0.00000000E+00  0.00000000E+00  0.00000000E+00
  0.00000000E+00  0.00000000E+00  0.00000000E+00
  0.00000000E+00  0.00000000E+00  0.00000000E+00
  0.00000000E+00  0.00000000E+00  0.00000000E+00
  0.00000000E+00  0.00000000E+00  0.00000000E+00
  0.00000000E+00  0.00000000E+00  0.00000000E+00
  0.00000000E+00  0.00000000E+00  0.00000000E+00
  0.00000000E+00  0.00000000E+00  0.00000000E+00
  0.00000000E+00  0.00000000E+00  0.00000000E+00
  0.00000000E+00  0.00000000E+00  0.00000000E+00
  0.00000000E+00  0.00000000E+00  0.00000000E+00
  0.00000000E+00  0.00000000E+00  0.00000000E+00
  0.00000000E+00  0.00000000E+00  0.00000000E+00
  0.00000000E+00  0.00000000E+00  0.00000000E+00
  0.00000000E+00  0.00000000E+00  0.00000000E+00
  0.00000000E+00  0.00000000E+00  0.00000000E+00
  0.00000000E+00  0.00000000E+00  0.00000000E+00
  0.00000000E+00  0.00000000E+00  0.00000000E+00
  0.00000000E+00  0.00000000E+00  0.00000000E+00
  0.00000000E+00  0.00000000E+00  0.00000000E+00
  0.00000000E+00  0.00000000E+00  0.00000000E+00
  0.00000000E+00  0.00000000E+00  0.00000000E+00
