MAPbI3-cubic                            
   1.00000000000000     
    12.6432276313736889    0.0000000000000000    0.0000000000000000
     0.0000000000000000   12.6441926012833097    0.0000000000000000
     0.0000000000000000    0.0000000000000000   12.6477555941466520
   Cs   Pb   Sn   I 
     8     3     5    24
Selective dynamics
Direct
  0.9999642202278736  0.9999641628058953  0.9999624965318930   T   T   T
  0.9999642202278736  0.9999641628058953  0.5000375034681070   T   T   T
  0.9999642202278736  0.5000358371941047  0.9999624965318930   T   T   T
  0.9999642202278736  0.5000358371941047  0.5000375034681070   T   T   T
  0.5000357797721264  0.9999641628058953  0.9999624965318930   T   T   T
  0.5000357797721264  0.9999641628058953  0.5000375034681070   T   T   T
  0.5000357797721264  0.5000358371941047  0.9999624965318930   T   T   T
  0.5000357797721264  0.5000358371941047  0.5000375034681070   T   T   T
  0.2500000000000000  0.2500000000000000  0.2500000000000000   T   T   T
  0.2500000000000000  0.2500000000000000  0.7500000000000000   T   T   T
  0.7500000000000000  0.7500000000000000  0.2500000000000000   T   T   T
  0.7500000000000000  0.7500000000000000  0.7500000000000000   T   T   T
  0.2500000000000000  0.7500000000000000  0.2500000000000000   T   T   T
  0.2500000000000000  0.7500000000000000  0.7500000000000000   T   T   T
  0.7500000000000000  0.2500000000000000  0.2500000000000000   T   T   T
  0.7500000000000000  0.2500000000000000  0.7500000000000000   T   T   T
  0.2500000000000000  0.2500000000000000  0.9999954440921854   T   T   T
  0.2500000000000000  0.7500000000000000  0.9999438007622743   T   T   T
  0.2500000000000000  0.2500000000000000  0.5000045559078146   T   T   T
  0.2500000000000000  0.7500000000000000  0.5000561992377257   T   T   T
  0.7500000000000000  0.2500000000000000  0.9999430764721353   T   T   T
  0.7500000000000000  0.7500000000000000  0.9973551654920669   T   T   T
  0.7500000000000000  0.2500000000000000  0.5000569235278647   T   T   T
  0.7500000000000000  0.7500000000000000  0.5026448345079331   T   T   T
  0.2500000000000000  0.9973611761569146  0.2500000000000000   T   T   T
  0.2500000000000000  0.5026388238430854  0.2500000000000000   T   T   T
  0.2500000000000000  0.9973102209457707  0.7500000000000000   T   T   T
  0.2500000000000000  0.5026897790542293  0.7500000000000000   T   T   T
  0.7500000000000000  0.0025831766687290  0.2500000000000000   T   T   T
  0.7500000000000000  0.4974168233312710  0.2500000000000000   T   T   T
  0.7500000000000000  0.9999973226827592  0.7500000000000000   T   T   T
  0.7500000000000000  0.5000026773172408  0.7500000000000000   T   T   T
  0.9973641417609898  0.2500000000000000  0.2500000000000000   T   T   T
  0.0025803685727013  0.7500000000000000  0.2500000000000000   T   T   T
  0.9973122039824176  0.2500000000000000  0.7500000000000000   T   T   T
  0.9999965590942637  0.7500000000000000  0.7500000000000000   T   T   T
  0.5026358582390102  0.2500000000000000  0.2500000000000000   T   T   T
  0.4974196314272987  0.7500000000000000  0.2500000000000000   T   T   T
  0.5026877960175824  0.2500000000000000  0.7500000000000000   T   T   T
  0.5000034409057363  0.7500000000000000  0.7500000000000000   T   T   T
 
  0.00000000E+00  0.00000000E+00  0.00000000E+00
  0.00000000E+00  0.00000000E+00  0.00000000E+00
  0.00000000E+00  0.00000000E+00  0.00000000E+00
  0.00000000E+00  0.00000000E+00  0.00000000E+00
  0.00000000E+00  0.00000000E+00  0.00000000E+00
  0.00000000E+00  0.00000000E+00  0.00000000E+00
  0.00000000E+00  0.00000000E+00  0.00000000E+00
  0.00000000E+00  0.00000000E+00  0.00000000E+00
  0.00000000E+00  0.00000000E+00  0.00000000E+00
  0.00000000E+00  0.00000000E+00  0.00000000E+00
  0.00000000E+00  0.00000000E+00  0.00000000E+00
  0.00000000E+00  0.00000000E+00  0.00000000E+00
  0.00000000E+00  0.00000000E+00  0.00000000E+00
  0.00000000E+00  0.00000000E+00  0.00000000E+00
  0.00000000E+00  0.00000000E+00  0.00000000E+00
  0.00000000E+00  0.00000000E+00  0.00000000E+00
  0.00000000E+00  0.00000000E+00  0.00000000E+00
  0.00000000E+00  0.00000000E+00  0.00000000E+00
  0.00000000E+00  0.00000000E+00  0.00000000E+00
  0.00000000E+00  0.00000000E+00  0.00000000E+00
  0.00000000E+00  0.00000000E+00  0.00000000E+00
  0.00000000E+00  0.00000000E+00  0.00000000E+00
  0.00000000E+00  0.00000000E+00  0.00000000E+00
  0.00000000E+00  0.00000000E+00  0.00000000E+00
  0.00000000E+00  0.00000000E+00  0.00000000E+00
  0.00000000E+00  0.00000000E+00  0.00000000E+00
  0.00000000E+00  0.00000000E+00  0.00000000E+00
  0.00000000E+00  0.00000000E+00  0.00000000E+00
  0.00000000E+00  0.00000000E+00  0.00000000E+00
  0.00000000E+00  0.00000000E+00  0.00000000E+00
  0.00000000E+00  0.00000000E+00  0.00000000E+00
  0.00000000E+00  0.00000000E+00  0.00000000E+00
  0.00000000E+00  0.00000000E+00  0.00000000E+00
  0.00000000E+00  0.00000000E+00  0.00000000E+00
  0.00000000E+00  0.00000000E+00  0.00000000E+00
  0.00000000E+00  0.00000000E+00  0.00000000E+00
  0.00000000E+00  0.00000000E+00  0.00000000E+00
  0.00000000E+00  0.00000000E+00  0.00000000E+00
  0.00000000E+00  0.00000000E+00  0.00000000E+00
  0.00000000E+00  0.00000000E+00  0.00000000E+00
