MAPbI3-cubic                            
   1.00000000000000     
    12.7181932665892017    0.0000000000000000    0.0000000000000000
     0.0000000000000000   12.7194181764425274    0.0000000000000000
     0.0000000000000000    0.0000000000000000   12.7206183527088363
   Cs   Pb   Sn   I 
     8     6     2    24
Selective dynamics
Direct
  0.0000000000000000  0.0000000000000000  0.0000000000000000   T   T   T
  0.0000000000000000  0.0000000000000000  0.5000000000000000   T   T   T
  0.0000000000000000  0.5000000000000000  0.0000000000000000   T   T   T
  0.0000000000000000  0.5000000000000000  0.5000000000000000   T   T   T
  0.5000000000000000  0.0000000000000000  0.0000000000000000   T   T   T
  0.5000000000000000  0.0000000000000000  0.5000000000000000   T   T   T
  0.5000000000000000  0.5000000000000000  0.0000000000000000   T   T   T
  0.5000000000000000  0.5000000000000000  0.5000000000000000   T   T   T
  0.2500000000000000  0.2500000000000000  0.2500000000000000   T   T   T
  0.2500000000000000  0.2500000000000000  0.7500000000000000   T   T   T
  0.2500000000000000  0.7500000000000000  0.2500000000000000   T   T   T
  0.7500000000000000  0.2500000000000000  0.7500000000000000   T   T   T
  0.7500000000000000  0.7500000000000000  0.2500000000000000   T   T   T
  0.7500000000000000  0.7500000000000000  0.7500000000000000   T   T   T
  0.2500000000000000  0.7500000000000000  0.7500000000000000   T   T   T
  0.7500000000000000  0.2500000000000000  0.2500000000000000   T   T   T
  0.2500000000000000  0.2500000000000000  0.9999999098282615   T   T   T
  0.2500000000000000  0.7500000000000000  0.9973044437655929   T   T   T
  0.2500000000000000  0.2500000000000000  0.5000000901717385   T   T   T
  0.2500000000000000  0.7500000000000000  0.5026955562344071   T   T   T
  0.7500000000000000  0.2500000000000000  0.0026955562344071   T   T   T
  0.7500000000000000  0.7500000000000000  0.0000000901717385   T   T   T
  0.7500000000000000  0.2500000000000000  0.4973044437655929   T   T   T
  0.7500000000000000  0.7500000000000000  0.4999999098282615   T   T   T
  0.2500000000000000  0.9999994676318948  0.2500000000000000   T   T   T
  0.2500000000000000  0.5000005323681052  0.2500000000000000   T   T   T
  0.2500000000000000  0.9973073249231916  0.7500000000000000   T   T   T
  0.2500000000000000  0.5026926750768084  0.7500000000000000   T   T   T
  0.7500000000000000  0.0026926750768084  0.2500000000000000   T   T   T
  0.7500000000000000  0.4973073249231916  0.2500000000000000   T   T   T
  0.7500000000000000  0.0000005323681052  0.7500000000000000   T   T   T
  0.7500000000000000  0.4999994676318948  0.7500000000000000   T   T   T
  0.9973104718373662  0.2500000000000000  0.2500000000000000   T   T   T
  0.0000002889300390  0.7500000000000000  0.2500000000000000   T   T   T
  0.9999997110699610  0.2500000000000000  0.7500000000000000   T   T   T
  0.0026895281626338  0.7500000000000000  0.7500000000000000   T   T   T
  0.5026895281626338  0.2500000000000000  0.2500000000000000   T   T   T
  0.4999997110699610  0.7500000000000000  0.2500000000000000   T   T   T
  0.5000002889300390  0.2500000000000000  0.7500000000000000   T   T   T
  0.4973104718373662  0.7500000000000000  0.7500000000000000   T   T   T
 
  0.00000000E+00  0.00000000E+00  0.00000000E+00
  0.00000000E+00  0.00000000E+00  0.00000000E+00
  0.00000000E+00  0.00000000E+00  0.00000000E+00
  0.00000000E+00  0.00000000E+00  0.00000000E+00
  0.00000000E+00  0.00000000E+00  0.00000000E+00
  0.00000000E+00  0.00000000E+00  0.00000000E+00
  0.00000000E+00  0.00000000E+00  0.00000000E+00
  0.00000000E+00  0.00000000E+00  0.00000000E+00
  0.00000000E+00  0.00000000E+00  0.00000000E+00
  0.00000000E+00  0.00000000E+00  0.00000000E+00
  0.00000000E+00  0.00000000E+00  0.00000000E+00
  0.00000000E+00  0.00000000E+00  0.00000000E+00
  0.00000000E+00  0.00000000E+00  0.00000000E+00
  0.00000000E+00  0.00000000E+00  0.00000000E+00
  0.00000000E+00  0.00000000E+00  0.00000000E+00
  0.00000000E+00  0.00000000E+00  0.00000000E+00
  0.00000000E+00  0.00000000E+00  0.00000000E+00
  0.00000000E+00  0.00000000E+00  0.00000000E+00
  0.00000000E+00  0.00000000E+00  0.00000000E+00
  0.00000000E+00  0.00000000E+00  0.00000000E+00
  0.00000000E+00  0.00000000E+00  0.00000000E+00
  0.00000000E+00  0.00000000E+00  0.00000000E+00
  0.00000000E+00  0.00000000E+00  0.00000000E+00
  0.00000000E+00  0.00000000E+00  0.00000000E+00
  0.00000000E+00  0.00000000E+00  0.00000000E+00
  0.00000000E+00  0.00000000E+00  0.00000000E+00
  0.00000000E+00  0.00000000E+00  0.00000000E+00
  0.00000000E+00  0.00000000E+00  0.00000000E+00
  0.00000000E+00  0.00000000E+00  0.00000000E+00
  0.00000000E+00  0.00000000E+00  0.00000000E+00
  0.00000000E+00  0.00000000E+00  0.00000000E+00
  0.00000000E+00  0.00000000E+00  0.00000000E+00
  0.00000000E+00  0.00000000E+00  0.00000000E+00
  0.00000000E+00  0.00000000E+00  0.00000000E+00
  0.00000000E+00  0.00000000E+00  0.00000000E+00
  0.00000000E+00  0.00000000E+00  0.00000000E+00
  0.00000000E+00  0.00000000E+00  0.00000000E+00
  0.00000000E+00  0.00000000E+00  0.00000000E+00
  0.00000000E+00  0.00000000E+00  0.00000000E+00
  0.00000000E+00  0.00000000E+00  0.00000000E+00
