MAPbI3-cubic                            
   1.00000000000000     
    12.6118942286929201    0.0000000000000000    0.0000000000000000
     0.0000000000000000   12.6128929833012755    0.0000000000000000
     0.0000000000000000    0.0000000000000000   12.6136989532600516
   Cs   Pb   Sn   I 
     8     2     6    24
Selective dynamics
Direct
  0.9999318469524496  0.0000000000000000  0.0000000000000000   T   T   T
  0.9999318469524496  0.0000000000000000  0.5000000000000000   T   T   T
  0.9999318469524496  0.5000000000000000  0.0000000000000000   T   T   T
  0.9999318469524496  0.5000000000000000  0.5000000000000000   T   T   T
  0.5000681530475504  0.0000000000000000  0.0000000000000000   T   T   T
  0.5000681530475504  0.0000000000000000  0.5000000000000000   T   T   T
  0.5000681530475504  0.5000000000000000  0.0000000000000000   T   T   T
  0.5000681530475504  0.5000000000000000  0.5000000000000000   T   T   T
  0.2500000000000000  0.2500000000000000  0.2500000000000000   T   T   T
  0.2500000000000000  0.7500000000000000  0.7500000000000000   T   T   T
  0.2500000000000000  0.2500000000000000  0.7500000000000000   T   T   T
  0.2500000000000000  0.7500000000000000  0.2500000000000000   T   T   T
  0.7500000000000000  0.2500000000000000  0.2500000000000000   T   T   T
  0.7500000000000000  0.2500000000000000  0.7500000000000000   T   T   T
  0.7500000000000000  0.7500000000000000  0.2500000000000000   T   T   T
  0.7500000000000000  0.7500000000000000  0.7500000000000000   T   T   T
  0.2500000000000000  0.2500000000000000  0.9974467902928552   T   T   T
  0.2500000000000000  0.7500000000000000  0.0025532097071448   T   T   T
  0.2500000000000000  0.2500000000000000  0.5025532097071448   T   T   T
  0.2500000000000000  0.7500000000000000  0.4974467902928552   T   T   T
  0.7500000000000000  0.2500000000000000  0.9999520710023333   T   T   T
  0.7500000000000000  0.7500000000000000  0.0000479289976667   T   T   T
  0.7500000000000000  0.2500000000000000  0.5000479289976667   T   T   T
  0.7500000000000000  0.7500000000000000  0.4999520710023333   T   T   T
  0.2500000000000000  0.9974493426346740  0.2500000000000000   T   T   T
  0.2500000000000000  0.5025506573653260  0.2500000000000000   T   T   T
  0.2500000000000000  0.0025506573653260  0.7500000000000000   T   T   T
  0.2500000000000000  0.4974493426346740  0.7500000000000000   T   T   T
  0.7500000000000000  0.9999520947871261  0.2500000000000000   T   T   T
  0.7500000000000000  0.5000479052128739  0.2500000000000000   T   T   T
  0.7500000000000000  0.0000479052128739  0.7500000000000000   T   T   T
  0.7500000000000000  0.4999520947871261  0.7500000000000000   T   T   T
  0.9973951415493900  0.2500000000000000  0.2500000000000000   T   T   T
  0.9998950403186839  0.7500000000000000  0.2500000000000000   T   T   T
  0.9998950403186839  0.2500000000000000  0.7500000000000000   T   T   T
  0.9973951415493900  0.7500000000000000  0.7500000000000000   T   T   T
  0.5026048584506100  0.2500000000000000  0.2500000000000000   T   T   T
  0.5001049596813161  0.7500000000000000  0.2500000000000000   T   T   T
  0.5001049596813161  0.2500000000000000  0.7500000000000000   T   T   T
  0.5026048584506100  0.7500000000000000  0.7500000000000000   T   T   T
 
  0.00000000E+00  0.00000000E+00  0.00000000E+00
  0.00000000E+00  0.00000000E+00  0.00000000E+00
  0.00000000E+00  0.00000000E+00  0.00000000E+00
  0.00000000E+00  0.00000000E+00  0.00000000E+00
  0.00000000E+00  0.00000000E+00  0.00000000E+00
  0.00000000E+00  0.00000000E+00  0.00000000E+00
  0.00000000E+00  0.00000000E+00  0.00000000E+00
  0.00000000E+00  0.00000000E+00  0.00000000E+00
  0.00000000E+00  0.00000000E+00  0.00000000E+00
  0.00000000E+00  0.00000000E+00  0.00000000E+00
  0.00000000E+00  0.00000000E+00  0.00000000E+00
  0.00000000E+00  0.00000000E+00  0.00000000E+00
  0.00000000E+00  0.00000000E+00  0.00000000E+00
  0.00000000E+00  0.00000000E+00  0.00000000E+00
  0.00000000E+00  0.00000000E+00  0.00000000E+00
  0.00000000E+00  0.00000000E+00  0.00000000E+00
  0.00000000E+00  0.00000000E+00  0.00000000E+00
  0.00000000E+00  0.00000000E+00  0.00000000E+00
  0.00000000E+00  0.00000000E+00  0.00000000E+00
  0.00000000E+00  0.00000000E+00  0.00000000E+00
  0.00000000E+00  0.00000000E+00  0.00000000E+00
  0.00000000E+00  0.00000000E+00  0.00000000E+00
  0.00000000E+00  0.00000000E+00  0.00000000E+00
  0.00000000E+00  0.00000000E+00  0.00000000E+00
  0.00000000E+00  0.00000000E+00  0.00000000E+00
  0.00000000E+00  0.00000000E+00  0.00000000E+00
  0.00000000E+00  0.00000000E+00  0.00000000E+00
  0.00000000E+00  0.00000000E+00  0.00000000E+00
  0.00000000E+00  0.00000000E+00  0.00000000E+00
  0.00000000E+00  0.00000000E+00  0.00000000E+00
  0.00000000E+00  0.00000000E+00  0.00000000E+00
  0.00000000E+00  0.00000000E+00  0.00000000E+00
  0.00000000E+00  0.00000000E+00  0.00000000E+00
  0.00000000E+00  0.00000000E+00  0.00000000E+00
  0.00000000E+00  0.00000000E+00  0.00000000E+00
  0.00000000E+00  0.00000000E+00  0.00000000E+00
  0.00000000E+00  0.00000000E+00  0.00000000E+00
  0.00000000E+00  0.00000000E+00  0.00000000E+00
  0.00000000E+00  0.00000000E+00  0.00000000E+00
  0.00000000E+00  0.00000000E+00  0.00000000E+00
