MAPbI3-cubic                            
   1.00000000000000     
    12.6633274325824008    0.0000000000000000    0.0000000000000000
     0.0000000000000000   12.6642039886762987    0.0000000000000000
     0.0000000000000000    0.0000000000000000   12.6652639298688676
   Cs   Pb   Sn   I 
     8     4     4    24
Selective dynamics
Direct
  0.0000000000000000  0.0000000000000000  0.0000000000000000   T   T   T
  0.0000000000000000  0.0000000000000000  0.5000000000000000   T   T   T
  0.0000000000000000  0.5000000000000000  0.0000000000000000   T   T   T
  0.0000000000000000  0.5000000000000000  0.5000000000000000   T   T   T
  0.5000000000000000  0.0000000000000000  0.0000000000000000   T   T   T
  0.5000000000000000  0.0000000000000000  0.5000000000000000   T   T   T
  0.5000000000000000  0.5000000000000000  0.0000000000000000   T   T   T
  0.5000000000000000  0.5000000000000000  0.5000000000000000   T   T   T
  0.2500000000000000  0.2500000000000000  0.2500000000000000   T   T   T
  0.2500000000000000  0.7500000000000000  0.7500000000000000   T   T   T
  0.7500000000000000  0.2500000000000000  0.7500000000000000   T   T   T
  0.7500000000000000  0.7500000000000000  0.2500000000000000   T   T   T
  0.7500000000000000  0.7500000000000000  0.7500000000000000   T   T   T
  0.2500000000000000  0.2500000000000000  0.7500000000000000   T   T   T
  0.2500000000000000  0.7500000000000000  0.2500000000000000   T   T   T
  0.7500000000000000  0.2500000000000000  0.2500000000000000   T   T   T
  0.2500000000000000  0.2500000000000000  0.9975559326904460   T   T   T
  0.2500000000000000  0.7500000000000000  0.0024440673095540   T   T   T
  0.2500000000000000  0.2500000000000000  0.5024440673095540   T   T   T
  0.2500000000000000  0.7500000000000000  0.4975559326904460   T   T   T
  0.7500000000000000  0.2500000000000000  0.0024440673095540   T   T   T
  0.7500000000000000  0.7500000000000000  0.9975559326904460   T   T   T
  0.7500000000000000  0.2500000000000000  0.4975559326904460   T   T   T
  0.7500000000000000  0.7500000000000000  0.5024440673095540   T   T   T
  0.2500000000000000  0.9975585772992659  0.2500000000000000   T   T   T
  0.2500000000000000  0.5024414227007341  0.2500000000000000   T   T   T
  0.2500000000000000  0.0024414227007341  0.7500000000000000   T   T   T
  0.2500000000000000  0.4975585772992659  0.7500000000000000   T   T   T
  0.7500000000000000  0.0024414227007341  0.2500000000000000   T   T   T
  0.7500000000000000  0.4975585772992659  0.2500000000000000   T   T   T
  0.7500000000000000  0.9975585772992659  0.7500000000000000   T   T   T
  0.7500000000000000  0.5024414227007341  0.7500000000000000   T   T   T
  0.9975613543682300  0.2500000000000000  0.2500000000000000   T   T   T
  0.0024386456317700  0.7500000000000000  0.2500000000000000   T   T   T
  0.0024386456317700  0.2500000000000000  0.7500000000000000   T   T   T
  0.9975613543682300  0.7500000000000000  0.7500000000000000   T   T   T
  0.5024386456317700  0.2500000000000000  0.2500000000000000   T   T   T
  0.4975613543682300  0.7500000000000000  0.2500000000000000   T   T   T
  0.4975613543682300  0.2500000000000000  0.7500000000000000   T   T   T
  0.5024386456317700  0.7500000000000000  0.7500000000000000   T   T   T
 
  0.00000000E+00  0.00000000E+00  0.00000000E+00
  0.00000000E+00  0.00000000E+00  0.00000000E+00
  0.00000000E+00  0.00000000E+00  0.00000000E+00
  0.00000000E+00  0.00000000E+00  0.00000000E+00
  0.00000000E+00  0.00000000E+00  0.00000000E+00
  0.00000000E+00  0.00000000E+00  0.00000000E+00
  0.00000000E+00  0.00000000E+00  0.00000000E+00
  0.00000000E+00  0.00000000E+00  0.00000000E+00
  0.00000000E+00  0.00000000E+00  0.00000000E+00
  0.00000000E+00  0.00000000E+00  0.00000000E+00
  0.00000000E+00  0.00000000E+00  0.00000000E+00
  0.00000000E+00  0.00000000E+00  0.00000000E+00
  0.00000000E+00  0.00000000E+00  0.00000000E+00
  0.00000000E+00  0.00000000E+00  0.00000000E+00
  0.00000000E+00  0.00000000E+00  0.00000000E+00
  0.00000000E+00  0.00000000E+00  0.00000000E+00
  0.00000000E+00  0.00000000E+00  0.00000000E+00
  0.00000000E+00  0.00000000E+00  0.00000000E+00
  0.00000000E+00  0.00000000E+00  0.00000000E+00
  0.00000000E+00  0.00000000E+00  0.00000000E+00
  0.00000000E+00  0.00000000E+00  0.00000000E+00
  0.00000000E+00  0.00000000E+00  0.00000000E+00
  0.00000000E+00  0.00000000E+00  0.00000000E+00
  0.00000000E+00  0.00000000E+00  0.00000000E+00
  0.00000000E+00  0.00000000E+00  0.00000000E+00
  0.00000000E+00  0.00000000E+00  0.00000000E+00
  0.00000000E+00  0.00000000E+00  0.00000000E+00
  0.00000000E+00  0.00000000E+00  0.00000000E+00
  0.00000000E+00  0.00000000E+00  0.00000000E+00
  0.00000000E+00  0.00000000E+00  0.00000000E+00
  0.00000000E+00  0.00000000E+00  0.00000000E+00
  0.00000000E+00  0.00000000E+00  0.00000000E+00
  0.00000000E+00  0.00000000E+00  0.00000000E+00
  0.00000000E+00  0.00000000E+00  0.00000000E+00
  0.00000000E+00  0.00000000E+00  0.00000000E+00
  0.00000000E+00  0.00000000E+00  0.00000000E+00
  0.00000000E+00  0.00000000E+00  0.00000000E+00
  0.00000000E+00  0.00000000E+00  0.00000000E+00
  0.00000000E+00  0.00000000E+00  0.00000000E+00
  0.00000000E+00  0.00000000E+00  0.00000000E+00
