MAPbI3-cubic                            
   1.00000000000000     
    12.6938632505771842    0.0000000000000000    0.0000000000000000
     0.0000000000000000   12.6963707593668911    0.0000000000000000
     0.0000000000000000    0.0000000000000000   12.6966896281480430
   Cs   Pb   Sn   I 
     8     5     3    24
Selective dynamics
Direct
  0.9972045186396414  0.9990518823418100  0.9990501032688925   T   T   T
  0.9972045186396414  0.9990518823418100  0.5009498967311075   T   T   T
  0.9972045186396414  0.5009481176581900  0.9990501032688925   T   T   T
  0.9972045186396414  0.5009481176581900  0.5009498967311075   T   T   T
  0.5027954813603586  0.9990518823418100  0.9990501032688925   T   T   T
  0.5027954813603586  0.9990518823418100  0.5009498967311075   T   T   T
  0.5027954813603586  0.5009481176581900  0.9990501032688925   T   T   T
  0.5027954813603586  0.5009481176581900  0.5009498967311075   T   T   T
  0.2500000000000000  0.2500000000000000  0.2500000000000000   T   T   T
  0.2500000000000000  0.2500000000000000  0.7500000000000000   T   T   T
  0.2500000000000000  0.7500000000000000  0.2500000000000000   T   T   T
  0.2500000000000000  0.7500000000000000  0.7500000000000000   T   T   T
  0.7500000000000000  0.2500000000000000  0.2500000000000000   T   T   T
  0.7500000000000000  0.2500000000000000  0.7500000000000000   T   T   T
  0.7500000000000000  0.7500000000000000  0.2500000000000000   T   T   T
  0.7500000000000000  0.7500000000000000  0.7500000000000000   T   T   T
  0.2500000000000000  0.2500000000000000  0.9998156173594097   T   T   T
  0.2500000000000000  0.7500000000000000  0.9999075039559955   T   T   T
  0.2500000000000000  0.2500000000000000  0.5001843826405903   T   T   T
  0.2500000000000000  0.7500000000000000  0.5000924960440045   T   T   T
  0.7500000000000000  0.2500000000000000  0.9974070330740901   T   T   T
  0.7500000000000000  0.7500000000000000  0.9997357965184293   T   T   T
  0.7500000000000000  0.2500000000000000  0.5025929669259099   T   T   T
  0.7500000000000000  0.7500000000000000  0.5002642034815707   T   T   T
  0.2500000000000000  0.9998146085002659  0.2500000000000000   T   T   T
  0.2500000000000000  0.5001853914997341  0.2500000000000000   T   T   T
  0.2500000000000000  0.9999078384021018  0.7500000000000000   T   T   T
  0.2500000000000000  0.5000921615978982  0.7500000000000000   T   T   T
  0.7500000000000000  0.9974040797026262  0.2500000000000000   T   T   T
  0.7500000000000000  0.5025959202973738  0.2500000000000000   T   T   T
  0.7500000000000000  0.9997350748448781  0.7500000000000000   T   T   T
  0.7500000000000000  0.5002649251551219  0.7500000000000000   T   T   T
  0.9995435678490878  0.2500000000000000  0.2500000000000000   T   T   T
  0.9970692145031776  0.7500000000000000  0.2500000000000000   T   T   T
  0.9970683808122374  0.2500000000000000  0.7500000000000000   T   T   T
  0.9969609327021871  0.7500000000000000  0.7500000000000000   T   T   T
  0.5004564321509122  0.2500000000000000  0.2500000000000000   T   T   T
  0.5029307854968224  0.7500000000000000  0.2500000000000000   T   T   T
  0.5029316191877626  0.2500000000000000  0.7500000000000000   T   T   T
  0.5030390672978129  0.7500000000000000  0.7500000000000000   T   T   T
 
  0.00000000E+00  0.00000000E+00  0.00000000E+00
  0.00000000E+00  0.00000000E+00  0.00000000E+00
  0.00000000E+00  0.00000000E+00  0.00000000E+00
  0.00000000E+00  0.00000000E+00  0.00000000E+00
  0.00000000E+00  0.00000000E+00  0.00000000E+00
  0.00000000E+00  0.00000000E+00  0.00000000E+00
  0.00000000E+00  0.00000000E+00  0.00000000E+00
  0.00000000E+00  0.00000000E+00  0.00000000E+00
  0.00000000E+00  0.00000000E+00  0.00000000E+00
  0.00000000E+00  0.00000000E+00  0.00000000E+00
  0.00000000E+00  0.00000000E+00  0.00000000E+00
  0.00000000E+00  0.00000000E+00  0.00000000E+00
  0.00000000E+00  0.00000000E+00  0.00000000E+00
  0.00000000E+00  0.00000000E+00  0.00000000E+00
  0.00000000E+00  0.00000000E+00  0.00000000E+00
  0.00000000E+00  0.00000000E+00  0.00000000E+00
  0.00000000E+00  0.00000000E+00  0.00000000E+00
  0.00000000E+00  0.00000000E+00  0.00000000E+00
  0.00000000E+00  0.00000000E+00  0.00000000E+00
  0.00000000E+00  0.00000000E+00  0.00000000E+00
  0.00000000E+00  0.00000000E+00  0.00000000E+00
  0.00000000E+00  0.00000000E+00  0.00000000E+00
  0.00000000E+00  0.00000000E+00  0.00000000E+00
  0.00000000E+00  0.00000000E+00  0.00000000E+00
  0.00000000E+00  0.00000000E+00  0.00000000E+00
  0.00000000E+00  0.00000000E+00  0.00000000E+00
  0.00000000E+00  0.00000000E+00  0.00000000E+00
  0.00000000E+00  0.00000000E+00  0.00000000E+00
  0.00000000E+00  0.00000000E+00  0.00000000E+00
  0.00000000E+00  0.00000000E+00  0.00000000E+00
  0.00000000E+00  0.00000000E+00  0.00000000E+00
  0.00000000E+00  0.00000000E+00  0.00000000E+00
  0.00000000E+00  0.00000000E+00  0.00000000E+00
  0.00000000E+00  0.00000000E+00  0.00000000E+00
  0.00000000E+00  0.00000000E+00  0.00000000E+00
  0.00000000E+00  0.00000000E+00  0.00000000E+00
  0.00000000E+00  0.00000000E+00  0.00000000E+00
  0.00000000E+00  0.00000000E+00  0.00000000E+00
  0.00000000E+00  0.00000000E+00  0.00000000E+00
  0.00000000E+00  0.00000000E+00  0.00000000E+00
