MAPbI3-cubic                            
   1.00000000000000     
    12.7273920064353483    0.0000000000000000    0.0000000000000000
     0.0000000000000000   12.7255557418288170    0.0000000000000000
     0.0000000000000000    0.0000000000000000   12.7253615997762513
   Cs   Pb   Sn   I 
     8     6     2    24
Selective dynamics
Direct
  0.9996158259929189  0.9996149727243449  0.0000000000000000   T   T   T
  0.9996158259929189  0.9996149727243449  0.5000000000000000   T   T   T
  0.9996158259929189  0.5003850272756551  0.0000000000000000   T   T   T
  0.9996158259929189  0.5003850272756551  0.5000000000000000   T   T   T
  0.5003841740070811  0.9996149727243449  0.0000000000000000   T   T   T
  0.5003841740070811  0.9996149727243449  0.5000000000000000   T   T   T
  0.5003841740070811  0.5003850272756551  0.0000000000000000   T   T   T
  0.5003841740070811  0.5003850272756551  0.5000000000000000   T   T   T
  0.2500000000000000  0.2500000000000000  0.2500000000000000   T   T   T
  0.2500000000000000  0.2500000000000000  0.7500000000000000   T   T   T
  0.2500000000000000  0.7500000000000000  0.2500000000000000   T   T   T
  0.2500000000000000  0.7500000000000000  0.7500000000000000   T   T   T
  0.7500000000000000  0.2500000000000000  0.2500000000000000   T   T   T
  0.7500000000000000  0.2500000000000000  0.7500000000000000   T   T   T
  0.7500000000000000  0.7500000000000000  0.2500000000000000   T   T   T
  0.7500000000000000  0.7500000000000000  0.7500000000000000   T   T   T
  0.2500000000000000  0.2500000000000000  0.0000000000000000   T   T   T
  0.2500000000000000  0.7500000000000000  0.0000000000000000   T   T   T
  0.2500000000000000  0.2500000000000000  0.5000000000000000   T   T   T
  0.2500000000000000  0.7500000000000000  0.5000000000000000   T   T   T
  0.7500000000000000  0.2500000000000000  0.0000000000000000   T   T   T
  0.7500000000000000  0.7500000000000000  0.0000000000000000   T   T   T
  0.7500000000000000  0.2500000000000000  0.5000000000000000   T   T   T
  0.7500000000000000  0.7500000000000000  0.5000000000000000   T   T   T
  0.2500000000000000  0.9998364466283931  0.2500000000000000   T   T   T
  0.2500000000000000  0.5001635533716069  0.2500000000000000   T   T   T
  0.2500000000000000  0.9998364466283931  0.7500000000000000   T   T   T
  0.2500000000000000  0.5001635533716069  0.7500000000000000   T   T   T
  0.7500000000000000  0.9973294983316805  0.2500000000000000   T   T   T
  0.7500000000000000  0.5026705016683195  0.2500000000000000   T   T   T
  0.7500000000000000  0.9973294983316805  0.7500000000000000   T   T   T
  0.7500000000000000  0.5026705016683195  0.7500000000000000   T   T   T
  0.9998371073225272  0.2500000000000000  0.2500000000000000   T   T   T
  0.9973277911573746  0.7500000000000000  0.2500000000000000   T   T   T
  0.9998371073225272  0.2500000000000000  0.7500000000000000   T   T   T
  0.9973277911573746  0.7500000000000000  0.7500000000000000   T   T   T
  0.5001628926774728  0.2500000000000000  0.2500000000000000   T   T   T
  0.5026722088426254  0.7500000000000000  0.2500000000000000   T   T   T
  0.5001628926774728  0.2500000000000000  0.7500000000000000   T   T   T
  0.5026722088426254  0.7500000000000000  0.7500000000000000   T   T   T
 
  0.00000000E+00  0.00000000E+00  0.00000000E+00
  0.00000000E+00  0.00000000E+00  0.00000000E+00
  0.00000000E+00  0.00000000E+00  0.00000000E+00
  0.00000000E+00  0.00000000E+00  0.00000000E+00
  0.00000000E+00  0.00000000E+00  0.00000000E+00
  0.00000000E+00  0.00000000E+00  0.00000000E+00
  0.00000000E+00  0.00000000E+00  0.00000000E+00
  0.00000000E+00  0.00000000E+00  0.00000000E+00
  0.00000000E+00  0.00000000E+00  0.00000000E+00
  0.00000000E+00  0.00000000E+00  0.00000000E+00
  0.00000000E+00  0.00000000E+00  0.00000000E+00
  0.00000000E+00  0.00000000E+00  0.00000000E+00
  0.00000000E+00  0.00000000E+00  0.00000000E+00
  0.00000000E+00  0.00000000E+00  0.00000000E+00
  0.00000000E+00  0.00000000E+00  0.00000000E+00
  0.00000000E+00  0.00000000E+00  0.00000000E+00
  0.00000000E+00  0.00000000E+00  0.00000000E+00
  0.00000000E+00  0.00000000E+00  0.00000000E+00
  0.00000000E+00  0.00000000E+00  0.00000000E+00
  0.00000000E+00  0.00000000E+00  0.00000000E+00
  0.00000000E+00  0.00000000E+00  0.00000000E+00
  0.00000000E+00  0.00000000E+00  0.00000000E+00
  0.00000000E+00  0.00000000E+00  0.00000000E+00
  0.00000000E+00  0.00000000E+00  0.00000000E+00
  0.00000000E+00  0.00000000E+00  0.00000000E+00
  0.00000000E+00  0.00000000E+00  0.00000000E+00
  0.00000000E+00  0.00000000E+00  0.00000000E+00
  0.00000000E+00  0.00000000E+00  0.00000000E+00
  0.00000000E+00  0.00000000E+00  0.00000000E+00
  0.00000000E+00  0.00000000E+00  0.00000000E+00
  0.00000000E+00  0.00000000E+00  0.00000000E+00
  0.00000000E+00  0.00000000E+00  0.00000000E+00
  0.00000000E+00  0.00000000E+00  0.00000000E+00
  0.00000000E+00  0.00000000E+00  0.00000000E+00
  0.00000000E+00  0.00000000E+00  0.00000000E+00
  0.00000000E+00  0.00000000E+00  0.00000000E+00
  0.00000000E+00  0.00000000E+00  0.00000000E+00
  0.00000000E+00  0.00000000E+00  0.00000000E+00
  0.00000000E+00  0.00000000E+00  0.00000000E+00
  0.00000000E+00  0.00000000E+00  0.00000000E+00
