MAPbI3-cubic                            
   1.00000000000000     
    12.6117589277138258    0.0000000000000000    0.0000000000000000
     0.0000000000000000   12.6125926751480240    0.0000000000000000
     0.0000000000000000    0.0000000000000000   12.6133940108764087
   Cs   Pb   Sn   I 
     8     2     6    24
Selective dynamics
Direct
  0.0201774712334371  0.0005176155451646  0.0342750829579552   T   T   T
  0.0355716265078763  0.9986159153778628  0.5199987562540482   T   T   T
  0.9798225287665630  0.5005176155451645  0.9657249170420448   T   T   T
  0.9644283734921237  0.4986159153778627  0.4800012437459518   T   T   T
  0.5355716265078763  0.0013840846221374  0.0199987562540483   T   T   T
  0.5201774712334370 -0.0005176155451645  0.5342750829579552   T   T   T
  0.4644283734921237  0.5013840846221372  0.9800012437459518   T   T   T
  0.4798225287665629  0.4994823844548355  0.4657249170420448   T   T   T
  0.2500000000000000  0.2500000000000000  0.2500000000000000   T   T   T
  0.7500000000000000  0.7500000000000000  0.7500000000000000   T   T   T
  0.2500000000000000  0.2500000000000000  0.7500000000000000   T   T   T
  0.2500000000000000  0.7500000000000000  0.2500000000000000   T   T   T
  0.2500000000000000  0.7500000000000000  0.7500000000000000   T   T   T
  0.7500000000000000  0.2500000000000000  0.2500000000000000   T   T   T
  0.7500000000000000  0.2500000000000000  0.7500000000000000   T   T   T
  0.7500000000000000  0.7500000000000000  0.2500000000000000   T   T   T
  0.2100201973019228  0.2859241886967330  0.9973857620943334   T   T   T
  0.2899798176980750  0.2140758263032647  0.5026142379056666   T   T   T
  0.2116522786706603  0.7156375165862935  0.9999284071731758   T   T   T
  0.2883477363293374  0.7843624834137065  0.5000715928268242   T   T   T
  0.7883477363293374  0.2156375315862912  0.0000715928268242   T   T   T
  0.7116522636706626  0.2843624834137065  0.4999284071731757   T   T   T
  0.7899798176980749  0.7859241886967400  0.0026142379056667   T   T   T
  0.7100201823019251  0.7140758113032600  0.4973857620943332   T   T   T
  0.2818626268719581  0.9974802926626850  0.2114631391949403   T   T   T
  0.2139465944941514  0.0000110836204284  0.7805045462352521   T   T   T
  0.2181373881280396  0.5025197073373150  0.2885368758050574   T   T   T
  0.2860534205058463  0.4999889163795715  0.7194954537647479   T   T   T
  0.7139465794941536 -0.0000110836204283  0.2805045462352522   T   T   T
  0.7818626268719583  0.0025197073373151  0.7114631241949426   T   T   T
  0.7860534205058464  0.5000110836204282  0.2194954687647455   T   T   T
  0.7181373731280417  0.4974802926626849  0.7885368758050574   T   T   T
  0.9974687387845171  0.2137851177638792  0.2900454758104557   T   T   T
  0.9998646071529502  0.2841277523244619  0.7121771365063213   T   T   T
  0.0001353928470497  0.7841277523244621  0.2878228634936786   T   T   T
  0.0025312612154828  0.7137851027638816  0.7099545241895441   T   T   T
  0.5025312612154829  0.2862148972361185  0.2099545391895419   T   T   T
  0.5001353928470498  0.2158722626755358  0.7878228634936787   T   T   T
  0.4998646071529502  0.7158722476755379  0.2121771515063191   T   T   T
  0.4974687387845173  0.7862148972361184  0.7900454758104559   T   T   T
 
  0.00000000E+00  0.00000000E+00  0.00000000E+00
  0.00000000E+00  0.00000000E+00  0.00000000E+00
  0.00000000E+00  0.00000000E+00  0.00000000E+00
  0.00000000E+00  0.00000000E+00  0.00000000E+00
  0.00000000E+00  0.00000000E+00  0.00000000E+00
  0.00000000E+00  0.00000000E+00  0.00000000E+00
  0.00000000E+00  0.00000000E+00  0.00000000E+00
  0.00000000E+00  0.00000000E+00  0.00000000E+00
  0.00000000E+00  0.00000000E+00  0.00000000E+00
  0.00000000E+00  0.00000000E+00  0.00000000E+00
  0.00000000E+00  0.00000000E+00  0.00000000E+00
  0.00000000E+00  0.00000000E+00  0.00000000E+00
  0.00000000E+00  0.00000000E+00  0.00000000E+00
  0.00000000E+00  0.00000000E+00  0.00000000E+00
  0.00000000E+00  0.00000000E+00  0.00000000E+00
  0.00000000E+00  0.00000000E+00  0.00000000E+00
  0.00000000E+00  0.00000000E+00  0.00000000E+00
  0.00000000E+00  0.00000000E+00  0.00000000E+00
  0.00000000E+00  0.00000000E+00  0.00000000E+00
  0.00000000E+00  0.00000000E+00  0.00000000E+00
  0.00000000E+00  0.00000000E+00  0.00000000E+00
  0.00000000E+00  0.00000000E+00  0.00000000E+00
  0.00000000E+00  0.00000000E+00  0.00000000E+00
  0.00000000E+00  0.00000000E+00  0.00000000E+00
  0.00000000E+00  0.00000000E+00  0.00000000E+00
  0.00000000E+00  0.00000000E+00  0.00000000E+00
  0.00000000E+00  0.00000000E+00  0.00000000E+00
  0.00000000E+00  0.00000000E+00  0.00000000E+00
  0.00000000E+00  0.00000000E+00  0.00000000E+00
  0.00000000E+00  0.00000000E+00  0.00000000E+00
  0.00000000E+00  0.00000000E+00  0.00000000E+00
  0.00000000E+00  0.00000000E+00  0.00000000E+00
  0.00000000E+00  0.00000000E+00  0.00000000E+00
  0.00000000E+00  0.00000000E+00  0.00000000E+00
  0.00000000E+00  0.00000000E+00  0.00000000E+00
  0.00000000E+00  0.00000000E+00  0.00000000E+00
  0.00000000E+00  0.00000000E+00  0.00000000E+00
  0.00000000E+00  0.00000000E+00  0.00000000E+00
  0.00000000E+00  0.00000000E+00  0.00000000E+00
  0.00000000E+00  0.00000000E+00  0.00000000E+00
