MAPbI3-cubic                            
   1.00000000000000     
    12.6645877547892809    0.0000000000000000    0.0000000000000000
     0.0000000000000000   12.6658479805217130    0.0000000000000000
     0.0000000000000000    0.0000000000000000   12.6715222537481207
   Cs   Pb   Sn   I 
     8     4     4    24
Selective dynamics
Direct
  0.0207901032536464  0.0008707382294569  0.0361113017003513   T   T   T
  0.0361683213872281  0.9997048987856867  0.5207009246565336   T   T   T
  0.9792098967463536  0.5008707382294569  0.9638886982996486   T   T   T
  0.9638316786127717  0.4997048987856866  0.4792990753434664   T   T   T
  0.5361683213872283  0.0002951012143134  0.0207009246565336   T   T   T
  0.5207901032536464  0.9991292617705431  0.5361113017003514   T   T   T
  0.4638316786127719  0.5002951012143133  0.9792990753434664   T   T   T
  0.4792098967463536  0.4991292617705431  0.4638886982996487   T   T   T
  0.2500000000000000  0.2500000000000000  0.2500000000000000   T   T   T
  0.2500000000000000  0.2500000000000000  0.7500000000000000   T   T   T
  0.7500000000000000  0.7500000000000000  0.2500000000000000   T   T   T
  0.7500000000000000  0.7500000000000000  0.7500000000000000   T   T   T
  0.2500000000000000  0.7500000000000000  0.2500000000000000   T   T   T
  0.2500000000000000  0.7500000000000000  0.7500000000000000   T   T   T
  0.7500000000000000  0.2500000000000000  0.2500000000000000   T   T   T
  0.7500000000000000  0.2500000000000000  0.7500000000000000   T   T   T
  0.2075900828730327  0.2890887343306915  0.0000442716733126   T   T   T
  0.2924099321269650  0.2109112806693062  0.4999557283266873   T   T   T
  0.2123406862110810  0.7155234828658071  0.9999317797612440   T   T   T
  0.2876593287889239  0.7844765171341929  0.5000682202387560   T   T   T
  0.7876593287889168  0.2155234978658048  0.0000682202387560   T   T   T
  0.7123406712110832  0.2844765171341929  0.4999317797612440   T   T   T
  0.7924099321269651  0.7890887343306915  0.9999557283266873   T   T   T
  0.7075900678730349  0.7109112656693085  0.5000442716733127   T   T   T
  0.2823473423865073  0.9974523124719744  0.2097385963399288   T   T   T
  0.2096186902525504  0.9974900561562787  0.7822365357462775   T   T   T
  0.2176526726134904  0.5025476875280256  0.2902614186600689   T   T   T
  0.2903813247474473  0.5025099438437213  0.7177634642537225   T   T   T
  0.7096186752525526  0.0025099438437213  0.2822365357462774   T   T   T
  0.7823473423865073  0.0025476875280256  0.7097385813399311   T   T   T
  0.7903813247474474  0.4974900561562787  0.2177634792537202   T   T   T
  0.7176526576134927  0.4974523124719744  0.7902614186600689   T   T   T
  0.9974961911151884  0.2128874586496469  0.2902773732447834   T   T   T
  0.9974788711712048  0.2866446836707042  0.7102462668056213   T   T   T
  0.0025211288287952  0.7866446836707041  0.2897537331943787   T   T   T
  0.0025038088848117  0.7128874436496493  0.7097226267552167   T   T   T
  0.5025038088848116  0.2871125563503508  0.2097226417552143   T   T   T
  0.5025211288287952  0.2133553313292935  0.7897537331943787   T   T   T
  0.4974788711712049  0.7133553163292959  0.2102462818056189   T   T   T
  0.4974961911151884  0.7871125563503507  0.7902773732447833   T   T   T
 
  0.00000000E+00  0.00000000E+00  0.00000000E+00
  0.00000000E+00  0.00000000E+00  0.00000000E+00
  0.00000000E+00  0.00000000E+00  0.00000000E+00
  0.00000000E+00  0.00000000E+00  0.00000000E+00
  0.00000000E+00  0.00000000E+00  0.00000000E+00
  0.00000000E+00  0.00000000E+00  0.00000000E+00
  0.00000000E+00  0.00000000E+00  0.00000000E+00
  0.00000000E+00  0.00000000E+00  0.00000000E+00
  0.00000000E+00  0.00000000E+00  0.00000000E+00
  0.00000000E+00  0.00000000E+00  0.00000000E+00
  0.00000000E+00  0.00000000E+00  0.00000000E+00
  0.00000000E+00  0.00000000E+00  0.00000000E+00
  0.00000000E+00  0.00000000E+00  0.00000000E+00
  0.00000000E+00  0.00000000E+00  0.00000000E+00
  0.00000000E+00  0.00000000E+00  0.00000000E+00
  0.00000000E+00  0.00000000E+00  0.00000000E+00
  0.00000000E+00  0.00000000E+00  0.00000000E+00
  0.00000000E+00  0.00000000E+00  0.00000000E+00
  0.00000000E+00  0.00000000E+00  0.00000000E+00
  0.00000000E+00  0.00000000E+00  0.00000000E+00
  0.00000000E+00  0.00000000E+00  0.00000000E+00
  0.00000000E+00  0.00000000E+00  0.00000000E+00
  0.00000000E+00  0.00000000E+00  0.00000000E+00
  0.00000000E+00  0.00000000E+00  0.00000000E+00
  0.00000000E+00  0.00000000E+00  0.00000000E+00
  0.00000000E+00  0.00000000E+00  0.00000000E+00
  0.00000000E+00  0.00000000E+00  0.00000000E+00
  0.00000000E+00  0.00000000E+00  0.00000000E+00
  0.00000000E+00  0.00000000E+00  0.00000000E+00
  0.00000000E+00  0.00000000E+00  0.00000000E+00
  0.00000000E+00  0.00000000E+00  0.00000000E+00
  0.00000000E+00  0.00000000E+00  0.00000000E+00
  0.00000000E+00  0.00000000E+00  0.00000000E+00
  0.00000000E+00  0.00000000E+00  0.00000000E+00
  0.00000000E+00  0.00000000E+00  0.00000000E+00
  0.00000000E+00  0.00000000E+00  0.00000000E+00
  0.00000000E+00  0.00000000E+00  0.00000000E+00
  0.00000000E+00  0.00000000E+00  0.00000000E+00
  0.00000000E+00  0.00000000E+00  0.00000000E+00
  0.00000000E+00  0.00000000E+00  0.00000000E+00
