MAPbI3-cubic                            
   1.00000000000000     
    12.7442257572524902    0.0000000000000000    0.0000000000000000
     0.0000000000000000   12.7453760118258188    0.0000000000000000
     0.0000000000000000    0.0000000000000000   12.7465242262087397
   Cs   Pb   Sn   I 
     8     7     1    24
Selective dynamics
Direct
  0.0204801942569953  0.9987725243652240  0.0368401076737377   T   T   T
  0.0359704979622992  0.9992292695951581  0.5227395536291466   T   T   T
  0.9773899040266022  0.5014749020034668  0.9614937536687527   T   T   T
  0.9616643627776843  0.5015403894456693  0.4802001184793467   T   T   T
  0.5383356372223157  0.9984596105543307  0.0197998815206532   T   T   T
  0.5226100959733978  0.9985250979965332  0.5385062463312473   T   T   T
  0.4640295020377007  0.5007707304048419  0.9772604463708534   T   T   T
  0.4795198057430047  0.5012274756347760  0.4631598923262623   T   T   T
  0.2500000000000000  0.2500000000000000  0.2500000000000000   T   T   T
  0.2500000000000000  0.2500000000000000  0.7500000000000000   T   T   T
  0.2500000000000000  0.7500000000000000  0.2500000000000000   T   T   T
  0.2500000000000000  0.7500000000000000  0.7500000000000000   T   T   T
  0.7500000000000000  0.2500000000000000  0.2500000000000000   T   T   T
  0.7500000000000000  0.2500000000000000  0.7500000000000000   T   T   T
  0.7500000000000000  0.7500000000000000  0.2500000000000000   T   T   T
  0.7500000000000000  0.7500000000000000  0.7500000000000000   T   T   T
  0.2071528175868459  0.2901794025055651  0.9999891628852607   T   T   T
  0.2928471974131517  0.2098206124944325  0.5000108371147393   T   T   T
  0.2081906933349356  0.7101920427171805  0.9999184618316701   T   T   T
  0.2918093216650621  0.7898079572828195  0.5000815381683299   T   T   T
  0.7925430350687583  0.2109264517771031  0.9998661368889584   T   T   T
  0.7074569649312417  0.2890735632228946  0.5001338631110416   T   T   T
  0.7893694252462823  0.7866744447517637  0.9974844010320112   T   T   T
  0.7106305747537177  0.7133255552482363  0.5025155989679888   T   T   T
  0.2838202176373837  0.9999651216325987  0.2047730867756613   T   T   T
  0.2061930476981830  0.9998602569375449  0.7839254280532584   T   T   T
  0.2161797973626139  0.5000348783674013  0.2952269282243364   T   T   T
  0.2938069673018147  0.5001397430624551  0.7160745719467416   T   T   T
  0.7053566042261319  0.9998515872532318  0.2830521860236725   T   T   T
  0.7816397783421787  0.9973821520805958  0.7099826319097782   T   T   T
  0.7946433957738681  0.5001484127467682  0.2169478289763252   T   T   T
  0.7183602216578213  0.5026178479194042  0.7900173680902218   T   T   T
  0.9999735544567053  0.2097902161992331  0.2927828205511696   T   T   T
  0.9998864962949848  0.2891137494535641  0.7072285392801060   T   T   T
  0.9998512863295966  0.7900234975340600  0.2917871095426354   T   T   T
  0.9974033851558533  0.7137327883065987  0.7109773624787229   T   T   T
  0.5000264455432947  0.2902097988007646  0.2072171944488281   T   T   T
  0.5001135037050152  0.2108862655464336  0.7927714607198940   T   T   T
  0.5001487136704034  0.7099765024659400  0.2082129054573623   T   T   T
  0.5025966148441467  0.7862672116934013  0.7890226375212771   T   T   T
 
  0.00000000E+00  0.00000000E+00  0.00000000E+00
  0.00000000E+00  0.00000000E+00  0.00000000E+00
  0.00000000E+00  0.00000000E+00  0.00000000E+00
  0.00000000E+00  0.00000000E+00  0.00000000E+00
  0.00000000E+00  0.00000000E+00  0.00000000E+00
  0.00000000E+00  0.00000000E+00  0.00000000E+00
  0.00000000E+00  0.00000000E+00  0.00000000E+00
  0.00000000E+00  0.00000000E+00  0.00000000E+00
  0.00000000E+00  0.00000000E+00  0.00000000E+00
  0.00000000E+00  0.00000000E+00  0.00000000E+00
  0.00000000E+00  0.00000000E+00  0.00000000E+00
  0.00000000E+00  0.00000000E+00  0.00000000E+00
  0.00000000E+00  0.00000000E+00  0.00000000E+00
  0.00000000E+00  0.00000000E+00  0.00000000E+00
  0.00000000E+00  0.00000000E+00  0.00000000E+00
  0.00000000E+00  0.00000000E+00  0.00000000E+00
  0.00000000E+00  0.00000000E+00  0.00000000E+00
  0.00000000E+00  0.00000000E+00  0.00000000E+00
  0.00000000E+00  0.00000000E+00  0.00000000E+00
  0.00000000E+00  0.00000000E+00  0.00000000E+00
  0.00000000E+00  0.00000000E+00  0.00000000E+00
  0.00000000E+00  0.00000000E+00  0.00000000E+00
  0.00000000E+00  0.00000000E+00  0.00000000E+00
  0.00000000E+00  0.00000000E+00  0.00000000E+00
  0.00000000E+00  0.00000000E+00  0.00000000E+00
  0.00000000E+00  0.00000000E+00  0.00000000E+00
  0.00000000E+00  0.00000000E+00  0.00000000E+00
  0.00000000E+00  0.00000000E+00  0.00000000E+00
  0.00000000E+00  0.00000000E+00  0.00000000E+00
  0.00000000E+00  0.00000000E+00  0.00000000E+00
  0.00000000E+00  0.00000000E+00  0.00000000E+00
  0.00000000E+00  0.00000000E+00  0.00000000E+00
  0.00000000E+00  0.00000000E+00  0.00000000E+00
  0.00000000E+00  0.00000000E+00  0.00000000E+00
  0.00000000E+00  0.00000000E+00  0.00000000E+00
  0.00000000E+00  0.00000000E+00  0.00000000E+00
  0.00000000E+00  0.00000000E+00  0.00000000E+00
  0.00000000E+00  0.00000000E+00  0.00000000E+00
  0.00000000E+00  0.00000000E+00  0.00000000E+00
  0.00000000E+00  0.00000000E+00  0.00000000E+00
