MAPbI3-cubic                            
   1.00000000000000     
    12.7254892455102393    0.0000000000000000    0.0000000000000000
     0.0000000000000000   12.7265538477108553    0.0000000000000000
     0.0000000000000000    0.0000000000000000   12.7273981535667620
   Cs   Pb   Sn   I 
     8     6     2    24
Selective dynamics
Direct
  0.0174186570614632  0.9995321435060325  0.0376850361190814   T   T   T
  0.0342808128449894  0.9978157456496205  0.5229973174249302   T   T   T
  0.9744205570378740  0.4991409007559229  0.9647412695925180   T   T   T
  0.9619231195549887  0.4983231424694961  0.4798952431554930   T   T   T
  0.5380768804450113  0.0016768575305039  0.0201047568445070   T   T   T
  0.5255794429621260  0.0008590992440769  0.5352587304074820   T   T   T
  0.4657191871550104  0.5021842543503795  0.9770026825750698   T   T   T
  0.4825813429385367  0.5004678564939675  0.4623149638809186   T   T   T
  0.2500000000000000  0.2500000000000000  0.2500000000000000   T   T   T
  0.2500000000000000  0.2500000000000000  0.7500000000000000   T   T   T
  0.2500000000000000  0.7500000000000000  0.2500000000000000   T   T   T
  0.2500000000000000  0.7500000000000000  0.7500000000000000   T   T   T
  0.7500000000000000  0.2500000000000000  0.2500000000000000   T   T   T
  0.7500000000000000  0.7500000000000000  0.7500000000000000   T   T   T
  0.7500000000000000  0.2500000000000000  0.7500000000000000   T   T   T
  0.7500000000000000  0.7500000000000000  0.2500000000000000   T   T   T
  0.2080911919441111  0.2919738997420739 -0.0000508030817115   T   T   T
  0.2919088230558866  0.2080261152579237  0.5000508030817111   T   T   T
  0.2078279574994202  0.7076925125463150  0.0000391459235256   T   T   T
  0.2921720575005775  0.7923074874536850  0.4999608540764744   T   T   T
  0.7907279271647154  0.2161597556812988  0.9976669132567839   T   T   T
  0.7092720728352846  0.2838402593186989  0.5023330867432161   T   T   T
  0.7900338385627814  0.7835789690405918  0.0025211953623494   T   T   T
  0.7099661614372186  0.7164210309594082  0.4974788046376507   T   T   T
  0.2822991037987831 -0.0000661234507405  0.2024834198132651   T   T   T
  0.2053623479291312  0.0000297277809547  0.7856449983136051   T   T   T
  0.2177009112012147  0.5000661234507402  0.2975165951867326   T   T   T
  0.2946376670708664  0.4999702722190451  0.7143550016863949   T   T   T
  0.7111587303148204  0.9975866450946067  0.2792321230035833   T   T   T
  0.7824843392696363  0.0024283870390450  0.7139673669573218   T   T   T
  0.7888412696851796  0.5024133549053933  0.2207678919964145   T   T   T
  0.7175156607303637  0.4975716129609549  0.7860326330426782   T   T   T
 -0.0001217279045348  0.2110837701519152  0.2926184778667449   T   T   T
  0.9972896954407835  0.2867139563550410  0.7100851116936497   T   T   T
  0.9974857942344673  0.7865710554763841  0.2902509936241531   T   T   T
 -0.0001467049542842  0.7111320402169833  0.7072432190528212   T   T   T
  0.5001217279045348  0.2889162448480825  0.2073815371332529   T   T   T
  0.5027103045592165  0.2132860586449567  0.7899148883063503   T   T   T
  0.5025142057655327  0.7134289445236159  0.2097490213758447   T   T   T
  0.5001467049542843  0.7888679597830167  0.7927567809471788   T   T   T
 
  0.00000000E+00  0.00000000E+00  0.00000000E+00
  0.00000000E+00  0.00000000E+00  0.00000000E+00
  0.00000000E+00  0.00000000E+00  0.00000000E+00
  0.00000000E+00  0.00000000E+00  0.00000000E+00
  0.00000000E+00  0.00000000E+00  0.00000000E+00
  0.00000000E+00  0.00000000E+00  0.00000000E+00
  0.00000000E+00  0.00000000E+00  0.00000000E+00
  0.00000000E+00  0.00000000E+00  0.00000000E+00
  0.00000000E+00  0.00000000E+00  0.00000000E+00
  0.00000000E+00  0.00000000E+00  0.00000000E+00
  0.00000000E+00  0.00000000E+00  0.00000000E+00
  0.00000000E+00  0.00000000E+00  0.00000000E+00
  0.00000000E+00  0.00000000E+00  0.00000000E+00
  0.00000000E+00  0.00000000E+00  0.00000000E+00
  0.00000000E+00  0.00000000E+00  0.00000000E+00
  0.00000000E+00  0.00000000E+00  0.00000000E+00
  0.00000000E+00  0.00000000E+00  0.00000000E+00
  0.00000000E+00  0.00000000E+00  0.00000000E+00
  0.00000000E+00  0.00000000E+00  0.00000000E+00
  0.00000000E+00  0.00000000E+00  0.00000000E+00
  0.00000000E+00  0.00000000E+00  0.00000000E+00
  0.00000000E+00  0.00000000E+00  0.00000000E+00
  0.00000000E+00  0.00000000E+00  0.00000000E+00
  0.00000000E+00  0.00000000E+00  0.00000000E+00
  0.00000000E+00  0.00000000E+00  0.00000000E+00
  0.00000000E+00  0.00000000E+00  0.00000000E+00
  0.00000000E+00  0.00000000E+00  0.00000000E+00
  0.00000000E+00  0.00000000E+00  0.00000000E+00
  0.00000000E+00  0.00000000E+00  0.00000000E+00
  0.00000000E+00  0.00000000E+00  0.00000000E+00
  0.00000000E+00  0.00000000E+00  0.00000000E+00
  0.00000000E+00  0.00000000E+00  0.00000000E+00
  0.00000000E+00  0.00000000E+00  0.00000000E+00
  0.00000000E+00  0.00000000E+00  0.00000000E+00
  0.00000000E+00  0.00000000E+00  0.00000000E+00
  0.00000000E+00  0.00000000E+00  0.00000000E+00
  0.00000000E+00  0.00000000E+00  0.00000000E+00
  0.00000000E+00  0.00000000E+00  0.00000000E+00
  0.00000000E+00  0.00000000E+00  0.00000000E+00
  0.00000000E+00  0.00000000E+00  0.00000000E+00
