MAPbI3-cubic                            
   1.00000000000000     
    12.6432276313736889    0.0000000000000000    0.0000000000000000
     0.0000000000000000   12.6441926012833097    0.0000000000000000
     0.0000000000000000    0.0000000000000000   12.6477555941466520
   Cs   Pb   Sn   I 
     8     3     5    24
Selective dynamics
Direct
  0.0195757073225867  0.0005574145802329  0.0348780694326900   T   T   T
  0.0336925701158579  0.9987661094088287  0.5221411189491971   T   T   T
  0.9787022370378164  0.5029637474925033  0.9642678994607097   T   T   T
  0.9642344152938935  0.5008362919706095  0.4812754266184500   T   T   T
  0.5357655847061065  0.9991637080293905  0.0187245733815500   T   T   T
  0.5212977629621836  0.9970362525074967  0.5357321005392903   T   T   T
  0.4663074298841420  0.5012338905911713  0.9778588810508029   T   T   T
  0.4804242926774134  0.4994425854197671  0.4651219305673100   T   T   T
  0.2500000000000000  0.2500000000000000  0.2500000000000000   T   T   T
  0.2500000000000000  0.2500000000000000  0.7500000000000000   T   T   T
  0.7500000000000000  0.7500000000000000  0.2500000000000000   T   T   T
  0.2500000000000000  0.7500000000000000  0.2500000000000000   T   T   T
  0.2500000000000000  0.7500000000000000  0.7500000000000000   T   T   T
  0.7500000000000000  0.2500000000000000  0.2500000000000000   T   T   T
  0.7500000000000000  0.2500000000000000  0.7500000000000000   T   T   T
  0.7500000000000000  0.7500000000000000  0.7500000000000000   T   T   T
  0.2069290656365150  0.2893463968192240 -0.0000594303202114   T   T   T
  0.2930709493634826  0.2106536181807737  0.5000594303202115   T   T   T
  0.2127577242595444  0.7151557255871110  0.9998619006655486   T   T   T
  0.2872422907404532  0.7848442744128890  0.5001380993344514   T   T   T
  0.7885809262515371  0.2167037976279439  0.0000024583939850   T   T   T
  0.7114190737484629  0.2832962173720539  0.4999975416060150   T   T   T
  0.7891937553616839  0.7849790253146705  0.9974323449705377   T   T   T
  0.7108062446383161  0.7150209746853295  0.5025676550294623   T   T   T
  0.2822058583372715  0.9974097712940619  0.2093270964586380   T   T   T
  0.2119143427536741  0.9974461414788136  0.7824764597387996   T   T   T
  0.2177941566627264  0.5025902287059381  0.2906729185413597   T   T   T
  0.2880856722463236  0.5025538585211864  0.7175235402612004   T   T   T
  0.7101187054144998  0.0025035036745853  0.2806416495038889   T   T   T
  0.7797254751286482 -0.0001193852243920  0.7154457382735524   T   T   T
  0.7898812945855002  0.4974964963254147  0.2193583654961090   T   T   T
  0.7202745248713518  0.5001193852243920  0.7845542617264476   T   T   T
  0.9974783403017206  0.2124211964716011  0.2910320755238990   T   T   T
  0.9974732295378302  0.2850044510957676  0.7093240988121110   T   T   T
  0.0024532708001285  0.7868951604228188  0.2890111098991958   T   T   T
 -0.0001590410137315  0.7167349637922426  0.7124930364499759   T   T   T
  0.5025216596982794  0.2875788185283965  0.2089679394760986   T   T   T
  0.5025267704621698  0.2149955639042302  0.7906759011878890   T   T   T
  0.4975467291998715  0.7131048395771812  0.2109889051008019   T   T   T
  0.5001590410137315  0.7832650362077574  0.7875069635500241   T   T   T
 
  0.00000000E+00  0.00000000E+00  0.00000000E+00
  0.00000000E+00  0.00000000E+00  0.00000000E+00
  0.00000000E+00  0.00000000E+00  0.00000000E+00
  0.00000000E+00  0.00000000E+00  0.00000000E+00
  0.00000000E+00  0.00000000E+00  0.00000000E+00
  0.00000000E+00  0.00000000E+00  0.00000000E+00
  0.00000000E+00  0.00000000E+00  0.00000000E+00
  0.00000000E+00  0.00000000E+00  0.00000000E+00
  0.00000000E+00  0.00000000E+00  0.00000000E+00
  0.00000000E+00  0.00000000E+00  0.00000000E+00
  0.00000000E+00  0.00000000E+00  0.00000000E+00
  0.00000000E+00  0.00000000E+00  0.00000000E+00
  0.00000000E+00  0.00000000E+00  0.00000000E+00
  0.00000000E+00  0.00000000E+00  0.00000000E+00
  0.00000000E+00  0.00000000E+00  0.00000000E+00
  0.00000000E+00  0.00000000E+00  0.00000000E+00
  0.00000000E+00  0.00000000E+00  0.00000000E+00
  0.00000000E+00  0.00000000E+00  0.00000000E+00
  0.00000000E+00  0.00000000E+00  0.00000000E+00
  0.00000000E+00  0.00000000E+00  0.00000000E+00
  0.00000000E+00  0.00000000E+00  0.00000000E+00
  0.00000000E+00  0.00000000E+00  0.00000000E+00
  0.00000000E+00  0.00000000E+00  0.00000000E+00
  0.00000000E+00  0.00000000E+00  0.00000000E+00
  0.00000000E+00  0.00000000E+00  0.00000000E+00
  0.00000000E+00  0.00000000E+00  0.00000000E+00
  0.00000000E+00  0.00000000E+00  0.00000000E+00
  0.00000000E+00  0.00000000E+00  0.00000000E+00
  0.00000000E+00  0.00000000E+00  0.00000000E+00
  0.00000000E+00  0.00000000E+00  0.00000000E+00
  0.00000000E+00  0.00000000E+00  0.00000000E+00
  0.00000000E+00  0.00000000E+00  0.00000000E+00
  0.00000000E+00  0.00000000E+00  0.00000000E+00
  0.00000000E+00  0.00000000E+00  0.00000000E+00
  0.00000000E+00  0.00000000E+00  0.00000000E+00
  0.00000000E+00  0.00000000E+00  0.00000000E+00
  0.00000000E+00  0.00000000E+00  0.00000000E+00
  0.00000000E+00  0.00000000E+00  0.00000000E+00
  0.00000000E+00  0.00000000E+00  0.00000000E+00
  0.00000000E+00  0.00000000E+00  0.00000000E+00
