MAPbI3-cubic                            
   1.00000000000000     
    12.6404844025844145    0.0000000000000000    0.0000000000000000
     0.0000000000000000   12.6410018681250591    0.0000000000000000
     0.0000000000000000    0.0000000000000000   12.6414881907228978
   Cs   Pb   Sn   I 
     8     3     5    24
Selective dynamics
Direct
  0.0192133875643476  0.9984607679758621  0.0371140072425784   T   T   T
  0.0360716462998324  0.9990770226036393  0.5196194542948609   T   T   T
  0.9784351002639261  0.5007135918486497  0.9647312134996556   T   T   T
  0.9627773133576703  0.5006359281281871  0.4787782525725582   T   T   T
  0.5372226866423297  0.9993640718718129  0.0212217474274419   T   T   T
  0.5215648997360739  0.9992864081513503  0.5352687865003444   T   T   T
  0.4639283537001676  0.5009229773963607  0.9803805457051391   T   T   T
  0.4807866124356523  0.5015392320241379  0.4628859927574216   T   T   T
  0.2500000000000000  0.2500000000000000  0.2500000000000000   T   T   T
  0.2500000000000000  0.7500000000000000  0.7500000000000000   T   T   T
  0.7500000000000000  0.2500000000000000  0.7500000000000000   T   T   T
  0.7500000000000000  0.7500000000000000  0.2500000000000000   T   T   T
  0.7500000000000000  0.7500000000000000  0.7500000000000000   T   T   T
  0.2500000000000000  0.2500000000000000  0.7500000000000000   T   T   T
  0.2500000000000000  0.7500000000000000  0.2500000000000000   T   T   T
  0.7500000000000000  0.2500000000000000  0.2500000000000000   T   T   T
  0.2096636246360135  0.2871429940576306  0.9976009146102135   T   T   T
  0.2903363903639841  0.2128570209423672  0.5023990853897865   T   T   T
  0.2100563237215549  0.7127715834642327  0.0025126646077141   T   T   T
  0.2899436912784428  0.7872284165357673  0.4974873353922858   T   T   T
  0.7903906316567980  0.2139461540631108  0.0025631160909410   T   T   T
  0.7096093683432020  0.2860538609368868  0.4974368839090590   T   T   T
  0.7874195923585806  0.7837244839314585  0.0002215264882676   T   T   T
  0.7125804076414194  0.7162755160685415  0.4997784735117324   T   T   T
  0.2821132504172559  0.9974250830317755  0.2097068872223015   T   T   T
  0.2091836380805996  0.0023818724788348  0.7828290738453862   T   T   T
  0.2178867645827418  0.5025749169682245  0.2902931277776962   T   T   T
  0.2908163769193981  0.4976181275211652  0.7171709261546138   T   T   T
  0.7138274116582972  0.9998170831637899  0.2805511854991026   T   T   T
  0.7829956902379622  0.9974432171865462  0.7105009569527153   T   T   T
  0.7861725883417028  0.5001829168362101  0.2194488295008951   T   T   T
  0.7170043097620378  0.5025567828134538  0.7894990430472847   T   T   T
  0.9974992269813806  0.2136736309051561  0.2907382116933528   T   T   T
  0.0023565264543283  0.2873352459370402  0.7090509422571959   T   T   T
  0.9999114884615190  0.7838631226200268  0.2872644868666975   T   T   T
  0.9974674544106539  0.7131190266417401  0.7105133833359276   T   T   T
  0.5025007730186194  0.2863263840948416  0.2092618033066449   T   T   T
  0.4976434735456718  0.2126647690629575  0.7909490577428041   T   T   T
  0.5000885115384810  0.7161368773799732  0.2127355281333002   T   T   T
  0.5025325455893461  0.7868809733582599  0.7894866166640724   T   T   T
 
  0.00000000E+00  0.00000000E+00  0.00000000E+00
  0.00000000E+00  0.00000000E+00  0.00000000E+00
  0.00000000E+00  0.00000000E+00  0.00000000E+00
  0.00000000E+00  0.00000000E+00  0.00000000E+00
  0.00000000E+00  0.00000000E+00  0.00000000E+00
  0.00000000E+00  0.00000000E+00  0.00000000E+00
  0.00000000E+00  0.00000000E+00  0.00000000E+00
  0.00000000E+00  0.00000000E+00  0.00000000E+00
  0.00000000E+00  0.00000000E+00  0.00000000E+00
  0.00000000E+00  0.00000000E+00  0.00000000E+00
  0.00000000E+00  0.00000000E+00  0.00000000E+00
  0.00000000E+00  0.00000000E+00  0.00000000E+00
  0.00000000E+00  0.00000000E+00  0.00000000E+00
  0.00000000E+00  0.00000000E+00  0.00000000E+00
  0.00000000E+00  0.00000000E+00  0.00000000E+00
  0.00000000E+00  0.00000000E+00  0.00000000E+00
  0.00000000E+00  0.00000000E+00  0.00000000E+00
  0.00000000E+00  0.00000000E+00  0.00000000E+00
  0.00000000E+00  0.00000000E+00  0.00000000E+00
  0.00000000E+00  0.00000000E+00  0.00000000E+00
  0.00000000E+00  0.00000000E+00  0.00000000E+00
  0.00000000E+00  0.00000000E+00  0.00000000E+00
  0.00000000E+00  0.00000000E+00  0.00000000E+00
  0.00000000E+00  0.00000000E+00  0.00000000E+00
  0.00000000E+00  0.00000000E+00  0.00000000E+00
  0.00000000E+00  0.00000000E+00  0.00000000E+00
  0.00000000E+00  0.00000000E+00  0.00000000E+00
  0.00000000E+00  0.00000000E+00  0.00000000E+00
  0.00000000E+00  0.00000000E+00  0.00000000E+00
  0.00000000E+00  0.00000000E+00  0.00000000E+00
  0.00000000E+00  0.00000000E+00  0.00000000E+00
  0.00000000E+00  0.00000000E+00  0.00000000E+00
  0.00000000E+00  0.00000000E+00  0.00000000E+00
  0.00000000E+00  0.00000000E+00  0.00000000E+00
  0.00000000E+00  0.00000000E+00  0.00000000E+00
  0.00000000E+00  0.00000000E+00  0.00000000E+00
  0.00000000E+00  0.00000000E+00  0.00000000E+00
  0.00000000E+00  0.00000000E+00  0.00000000E+00
  0.00000000E+00  0.00000000E+00  0.00000000E+00
  0.00000000E+00  0.00000000E+00  0.00000000E+00
