MAPbI3-cubic                            
   1.00000000000000     
    12.6668917163625814    0.0000000000000000    0.0000000000000000
     0.0000000000000000   12.6663491202548339    0.0000000000000000
     0.0000000000000000    0.0000000000000000   12.6658893601496327
   Cs   Pb   Sn   I 
     8     4     4    24
Selective dynamics
Direct
  0.0186054510334689  0.9983330899030014  0.0342313993829593   T   T   T
  0.0322640777372570  0.9973866828529384  0.5265524829692715   T   T   T
  0.9764671155149343  0.5025905074815509  0.9652311390891641   T   T   T
  0.9626805655725906  0.5025077175244722  0.4846438049332378   T   T   T
  0.5373194344274094  0.9974922824755278  0.0153561950667621   T   T   T
  0.5235328844850657  0.9974094925184491  0.5347688609108359   T   T   T
  0.4677359222627430  0.5026133171470616  0.9734475170307285   T   T   T
  0.4813945489665312  0.5016669100969986  0.4657686006170407   T   T   T
  0.2500000000000000  0.2500000000000000  0.2500000000000000   T   T   T
  0.2500000000000000  0.2500000000000000  0.7500000000000000   T   T   T
  0.2500000000000000  0.7500000000000000  0.2500000000000000   T   T   T
  0.7500000000000000  0.2500000000000000  0.2500000000000000   T   T   T
  0.7500000000000000  0.2500000000000000  0.7500000000000000   T   T   T
  0.7500000000000000  0.7500000000000000  0.2500000000000000   T   T   T
  0.7500000000000000  0.7500000000000000  0.7500000000000000   T   T   T
  0.2500000000000000  0.7500000000000000  0.7500000000000000   T   T   T
  0.2054655596790263  0.2912525054146067 -0.0001744823803350   T   T   T
  0.2945344553209713  0.2087475095853910  0.5001744823803349   T   T   T
  0.2121367242954478  0.7109011580450018  0.9972890126222184   T   T   T
  0.2878632907045499  0.7890988419549982  0.5027109873777816   T   T   T
  0.7933719464923934  0.2176531310985065  0.9973882642336296   T   T   T
  0.7066280535076066  0.2823468839014913  0.5026117357663704   T   T   T
  0.7868767378903779  0.7804566163815397  0.9998333613822828   T   T   T
  0.7131232621096221  0.7195433836184603  0.5001666386177172   T   T   T
  0.2845361794638701 -0.0002111271774456  0.2021633820595306   T   T   T
  0.2140919395094091  0.9972946115148543  0.7846550433746228   T   T   T
  0.2154638355361276  0.5002111271774459  0.2978366329404670   T   T   T
  0.2859080754905885  0.5027053884851457  0.7153449566253772   T   T   T
  0.7076291570438861  0.9973367978414335  0.2776299746669444   T   T   T
  0.7774564481967225  0.9996950133033821  0.7187580975140407   T   T   T
  0.7923708429561139  0.5026632021585665  0.2223700403330532   T   T   T
  0.7225435518032775  0.5003049866966179  0.7812419024859593   T   T   T
 -0.0002249555198908  0.2083119160084785  0.2941964095587375   T   T   T
  0.9973056869450693  0.2825064757350085  0.7069401232200478   T   T   T
  0.9974379907805304  0.7890908513762120  0.2881556491813096   T   T   T
 -0.0005381906640951  0.7191835570068462  0.7131667695174905   T   T   T
  0.5002249555198909  0.2916880989915192  0.2058036054412601   T   T   T
  0.5026943130549307  0.2174935392649893  0.7930598767799522   T   T   T
  0.5025620092194696  0.7109091486237880  0.2118443658186881   T   T   T
  0.5005381906640950  0.7808164429931538  0.7868332304825095   T   T   T
 
  0.00000000E+00  0.00000000E+00  0.00000000E+00
  0.00000000E+00  0.00000000E+00  0.00000000E+00
  0.00000000E+00  0.00000000E+00  0.00000000E+00
  0.00000000E+00  0.00000000E+00  0.00000000E+00
  0.00000000E+00  0.00000000E+00  0.00000000E+00
  0.00000000E+00  0.00000000E+00  0.00000000E+00
  0.00000000E+00  0.00000000E+00  0.00000000E+00
  0.00000000E+00  0.00000000E+00  0.00000000E+00
  0.00000000E+00  0.00000000E+00  0.00000000E+00
  0.00000000E+00  0.00000000E+00  0.00000000E+00
  0.00000000E+00  0.00000000E+00  0.00000000E+00
  0.00000000E+00  0.00000000E+00  0.00000000E+00
  0.00000000E+00  0.00000000E+00  0.00000000E+00
  0.00000000E+00  0.00000000E+00  0.00000000E+00
  0.00000000E+00  0.00000000E+00  0.00000000E+00
  0.00000000E+00  0.00000000E+00  0.00000000E+00
  0.00000000E+00  0.00000000E+00  0.00000000E+00
  0.00000000E+00  0.00000000E+00  0.00000000E+00
  0.00000000E+00  0.00000000E+00  0.00000000E+00
  0.00000000E+00  0.00000000E+00  0.00000000E+00
  0.00000000E+00  0.00000000E+00  0.00000000E+00
  0.00000000E+00  0.00000000E+00  0.00000000E+00
  0.00000000E+00  0.00000000E+00  0.00000000E+00
  0.00000000E+00  0.00000000E+00  0.00000000E+00
  0.00000000E+00  0.00000000E+00  0.00000000E+00
  0.00000000E+00  0.00000000E+00  0.00000000E+00
  0.00000000E+00  0.00000000E+00  0.00000000E+00
  0.00000000E+00  0.00000000E+00  0.00000000E+00
  0.00000000E+00  0.00000000E+00  0.00000000E+00
  0.00000000E+00  0.00000000E+00  0.00000000E+00
  0.00000000E+00  0.00000000E+00  0.00000000E+00
  0.00000000E+00  0.00000000E+00  0.00000000E+00
  0.00000000E+00  0.00000000E+00  0.00000000E+00
  0.00000000E+00  0.00000000E+00  0.00000000E+00
  0.00000000E+00  0.00000000E+00  0.00000000E+00
  0.00000000E+00  0.00000000E+00  0.00000000E+00
  0.00000000E+00  0.00000000E+00  0.00000000E+00
  0.00000000E+00  0.00000000E+00  0.00000000E+00
  0.00000000E+00  0.00000000E+00  0.00000000E+00
  0.00000000E+00  0.00000000E+00  0.00000000E+00
