MAPbI3-cubic                            
   1.00000000000000     
    12.7181932665892017    0.0000000000000000    0.0000000000000000
     0.0000000000000000   12.7194181764425274    0.0000000000000000
     0.0000000000000000    0.0000000000000000   12.7206183527088363
   Cs   Pb   Sn   I 
     8     6     2    24
Selective dynamics
Direct
  0.0208449380624161  0.0005847707378136  0.0369134278727564   T   T   T
  0.0376484977517956  0.9999902777094477  0.5210720084465200   T   T   T
  0.9791550619375839  0.5005847707378136  0.9630865721272436   T   T   T
  0.9623515022482044  0.4999902777094476  0.4789279915534800   T   T   T
  0.5376479340646609  0.0000098226495477  0.0210716330773029   T   T   T
  0.5208454399043487  0.9994152368711868  0.5369158665759218   T   T   T
  0.4623520659353391  0.5000098226495476  0.9789283669226971   T   T   T
  0.4791545600956512  0.4994152368711868  0.4630841334240782   T   T   T
  0.2500001823207584  0.2500004604429790  0.2500014105856989   T   T   T
  0.2499998829036225  0.2499979601007123  0.7500008932171531   T   T   T
  0.2500009059151364  0.7500009685224881  0.2499989840012679   T   T   T
  0.7499990940848636  0.2500009685224882  0.7500010159987321   T   T   T
  0.7500001170963775  0.7499979601007124  0.2499991067828470   T   T   T
  0.7499998176792416  0.7500004604429791  0.7499985894143012   T   T   T
  0.2499997667693929  0.7499989612119511  0.7499988553090280   T   T   T
  0.7500002332306072  0.2499989612119511  0.2500011446909720   T   T   T
  0.2077297447829119  0.2894237523480866  0.0001453964194209   T   T   T
  0.2922704860743027  0.2105759995680531  0.4998546734574615   T   T   T
  0.2097536418365594  0.7125396849025222  0.9975934751329935   T   T   T
  0.2902463161711197  0.7874605234206604  0.5024061467976847   T   T   T
  0.7902463731634383  0.2125396999025198  0.0024065248670065   T   T   T
  0.7097536838288803  0.2874605234206604  0.4975938532023153   T   T   T
  0.7922702702170858  0.7894237523480867 -0.0001453964194209   T   T   T
  0.7077295139256973  0.7105759845680555  0.5001453265425384   T   T   T
  0.2833413623011776 -0.0000309312965142  0.2057097502551701   T   T   T
  0.2080142412059176  0.9974335559015464  0.7820446009349094   T   T   T
  0.2166582756474892  0.5000320530193134  0.2942909285199994   T   T   T
  0.2919861973368454  0.5025668225259990  0.7179556704372094   T   T   T
  0.7080138026631545  0.0025668225259991  0.2820443295627906   T   T   T
  0.7833417393525084  0.0000320530193135  0.7057090714800006   T   T   T
  0.7919857737940801  0.4974335559015464  0.2179554140650884   T   T   T
  0.7166586376988224  0.4999690687034857  0.7942902647448276   T   T   T
  0.9975059561955774  0.2122381161813872  0.2905017922167380   T   T   T
  0.0000521533665011  0.2893352069754747  0.7078028645318207   T   T   T
  0.9999478466334990  0.7893352069754748  0.2921971354681792   T   T   T
  0.0024940438044227  0.7122381011813896  0.7094982077832620   T   T   T
  0.5024940180219948  0.2877619931309222  0.2094981434466955   T   T   T
  0.4999481496030462  0.2106648100764157  0.7921968055515564   T   T   T
  0.5000518503969539  0.7106647950764180  0.2078032094484414   T   T   T
  0.4975059819780053  0.7877619931309221  0.7905018715533021   T   T   T
 
  0.00000000E+00  0.00000000E+00  0.00000000E+00
  0.00000000E+00  0.00000000E+00  0.00000000E+00
  0.00000000E+00  0.00000000E+00  0.00000000E+00
  0.00000000E+00  0.00000000E+00  0.00000000E+00
  0.00000000E+00  0.00000000E+00  0.00000000E+00
  0.00000000E+00  0.00000000E+00  0.00000000E+00
  0.00000000E+00  0.00000000E+00  0.00000000E+00
  0.00000000E+00  0.00000000E+00  0.00000000E+00
  0.00000000E+00  0.00000000E+00  0.00000000E+00
  0.00000000E+00  0.00000000E+00  0.00000000E+00
  0.00000000E+00  0.00000000E+00  0.00000000E+00
  0.00000000E+00  0.00000000E+00  0.00000000E+00
  0.00000000E+00  0.00000000E+00  0.00000000E+00
  0.00000000E+00  0.00000000E+00  0.00000000E+00
  0.00000000E+00  0.00000000E+00  0.00000000E+00
  0.00000000E+00  0.00000000E+00  0.00000000E+00
  0.00000000E+00  0.00000000E+00  0.00000000E+00
  0.00000000E+00  0.00000000E+00  0.00000000E+00
  0.00000000E+00  0.00000000E+00  0.00000000E+00
  0.00000000E+00  0.00000000E+00  0.00000000E+00
  0.00000000E+00  0.00000000E+00  0.00000000E+00
  0.00000000E+00  0.00000000E+00  0.00000000E+00
  0.00000000E+00  0.00000000E+00  0.00000000E+00
  0.00000000E+00  0.00000000E+00  0.00000000E+00
  0.00000000E+00  0.00000000E+00  0.00000000E+00
  0.00000000E+00  0.00000000E+00  0.00000000E+00
  0.00000000E+00  0.00000000E+00  0.00000000E+00
  0.00000000E+00  0.00000000E+00  0.00000000E+00
  0.00000000E+00  0.00000000E+00  0.00000000E+00
  0.00000000E+00  0.00000000E+00  0.00000000E+00
  0.00000000E+00  0.00000000E+00  0.00000000E+00
  0.00000000E+00  0.00000000E+00  0.00000000E+00
  0.00000000E+00  0.00000000E+00  0.00000000E+00
  0.00000000E+00  0.00000000E+00  0.00000000E+00
  0.00000000E+00  0.00000000E+00  0.00000000E+00
  0.00000000E+00  0.00000000E+00  0.00000000E+00
  0.00000000E+00  0.00000000E+00  0.00000000E+00
  0.00000000E+00  0.00000000E+00  0.00000000E+00
  0.00000000E+00  0.00000000E+00  0.00000000E+00
  0.00000000E+00  0.00000000E+00  0.00000000E+00
