MAPbI3-cubic                            
   1.00000000000000     
    12.7273920064353483    0.0000000000000000    0.0000000000000000
     0.0000000000000000   12.7255557418288170    0.0000000000000000
     0.0000000000000000    0.0000000000000000   12.7253615997762513
   Cs   Pb   Sn   I 
     8     6     2    24
Selective dynamics
Direct
  0.0178673650108294  0.9969370344511893  0.0372423475155714   T   T   T
  0.0343463398502005  0.9979481567525187  0.5226014237988660   T   T   T
  0.9749451273536580  0.5012927998153179  0.9643596746625177   T   T   T
  0.9616435337902693  0.5026509688316945  0.4796710938202237   T   T   T
  0.5383564662097307  0.9973490311683055  0.0203289061797763   T   T   T
  0.5250548726463420  0.9987072001846821  0.5356403253374823   T   T   T
  0.4656536601497995  0.5020518432474813  0.9773985762011340   T   T   T
  0.4821326349891705  0.5030629655488107  0.4627576524844287   T   T   T
  0.2500000000000000  0.2500000000000000  0.2500000000000000   T   T   T
  0.2500000000000000  0.2500000000000000  0.7500000000000000   T   T   T
  0.2500000000000000  0.7500000000000000  0.2500000000000000   T   T   T
  0.2500000000000000  0.7500000000000000  0.7500000000000000   T   T   T
  0.7500000000000000  0.2500000000000000  0.2500000000000000   T   T   T
  0.7500000000000000  0.2500000000000000  0.7500000000000000   T   T   T
  0.7500000000000000  0.7500000000000000  0.2500000000000000   T   T   T
  0.7500000000000000  0.7500000000000000  0.7500000000000000   T   T   T
  0.2064067387140548  0.2918332538459987  0.0000044780715133   T   T   T
  0.2935932762859430  0.2081667611539991  0.4999955219284866   T   T   T
  0.2094622342418611  0.7080903929083963  0.0000611285764619   T   T   T
  0.2905377807581366  0.7919096070916037  0.4999388714235381   T   T   T
  0.7945384437770777  0.2138013229329792  0.0000044670811296   T   T   T
  0.7054615562229223  0.2861986920670185  0.4999955329188703   T   T   T
  0.7864215952488300  0.7821958158500594  0.0000785851521273   T   T   T
  0.7135784047511700  0.7178041841499406  0.4999214148478729   T   T   T
  0.2824779444423284 -0.0002675295199897  0.2029649270646978   T   T   T
  0.2054076300450252 -0.0002567371182420  0.7852720874651946   T   T   T
  0.2175220705576693  0.5002675295199897  0.2970350879352999   T   T   T
  0.2945923849549723  0.5002567371182420  0.7147279125348054   T   T   T
  0.7106788859141605  0.9972788109320290  0.2795577473073285   T   T   T
  0.7822068075923861  0.9972827569880157  0.7129965043265448   T   T   T
  0.7893211140858395  0.5027211890679710  0.2204422676926692   T   T   T
  0.7177931924076139  0.5027172430119843  0.7870034956734552   T   T   T
 -0.0002800036438444  0.2110968790509421  0.2940376725785247   T   T   T
 -0.0002862367475190  0.2889230576890046  0.7057795537176476   T   T   T
  0.9973347866753811  0.7866224282892177  0.2887567654488318   T   T   T
  0.9973249603075727  0.7132944609545125  0.7118517360813986   T   T   T
  0.5002800036438443  0.2889031359490556  0.2059623424214730   T   T   T
  0.5002862367475192  0.2110769573109930  0.7942204462823524   T   T   T
  0.5026652133246189  0.7133775717107823  0.2112432495511659   T   T   T
  0.5026750396924273  0.7867055390454875  0.7881482639186014   T   T   T
 
  0.00000000E+00  0.00000000E+00  0.00000000E+00
  0.00000000E+00  0.00000000E+00  0.00000000E+00
  0.00000000E+00  0.00000000E+00  0.00000000E+00
  0.00000000E+00  0.00000000E+00  0.00000000E+00
  0.00000000E+00  0.00000000E+00  0.00000000E+00
  0.00000000E+00  0.00000000E+00  0.00000000E+00
  0.00000000E+00  0.00000000E+00  0.00000000E+00
  0.00000000E+00  0.00000000E+00  0.00000000E+00
  0.00000000E+00  0.00000000E+00  0.00000000E+00
  0.00000000E+00  0.00000000E+00  0.00000000E+00
  0.00000000E+00  0.00000000E+00  0.00000000E+00
  0.00000000E+00  0.00000000E+00  0.00000000E+00
  0.00000000E+00  0.00000000E+00  0.00000000E+00
  0.00000000E+00  0.00000000E+00  0.00000000E+00
  0.00000000E+00  0.00000000E+00  0.00000000E+00
  0.00000000E+00  0.00000000E+00  0.00000000E+00
  0.00000000E+00  0.00000000E+00  0.00000000E+00
  0.00000000E+00  0.00000000E+00  0.00000000E+00
  0.00000000E+00  0.00000000E+00  0.00000000E+00
  0.00000000E+00  0.00000000E+00  0.00000000E+00
  0.00000000E+00  0.00000000E+00  0.00000000E+00
  0.00000000E+00  0.00000000E+00  0.00000000E+00
  0.00000000E+00  0.00000000E+00  0.00000000E+00
  0.00000000E+00  0.00000000E+00  0.00000000E+00
  0.00000000E+00  0.00000000E+00  0.00000000E+00
  0.00000000E+00  0.00000000E+00  0.00000000E+00
  0.00000000E+00  0.00000000E+00  0.00000000E+00
  0.00000000E+00  0.00000000E+00  0.00000000E+00
  0.00000000E+00  0.00000000E+00  0.00000000E+00
  0.00000000E+00  0.00000000E+00  0.00000000E+00
  0.00000000E+00  0.00000000E+00  0.00000000E+00
  0.00000000E+00  0.00000000E+00  0.00000000E+00
  0.00000000E+00  0.00000000E+00  0.00000000E+00
  0.00000000E+00  0.00000000E+00  0.00000000E+00
  0.00000000E+00  0.00000000E+00  0.00000000E+00
  0.00000000E+00  0.00000000E+00  0.00000000E+00
  0.00000000E+00  0.00000000E+00  0.00000000E+00
  0.00000000E+00  0.00000000E+00  0.00000000E+00
  0.00000000E+00  0.00000000E+00  0.00000000E+00
  0.00000000E+00  0.00000000E+00  0.00000000E+00
