MAPbI3-cubic                            
   1.00000000000000     
    12.6761108043421391    0.0000000000000000    0.0000000000000000
     0.0000000000000000   12.6759743761161463    0.0000000000000000
     0.0000000000000000    0.0000000000000000   12.6762175762429035
   Cs   Pb   Sn   I 
     8     4     4    24
Selective dynamics
Direct
  0.0178537974508111  0.9984294227044131  0.0349210266412258   T   T   T
  0.0344586220885570  0.9991760620352251  0.5215088287191333   T   T   T
  0.9758704156154444  0.5026741376466060  0.9664910668086460   T   T   T
  0.9626549495087920  0.5031655071317293  0.4802707575986424   T   T   T
  0.5374272272236407  0.9968531570952389  0.0196583053973841   T   T   T
  0.5241570488257395  0.9974724831930586  0.5336602144263186   T   T   T
  0.4656096366408050  0.5009182743001308  0.9785171758706175   T   T   T
  0.4821388431426181  0.5016426256259038  0.4650865841329835   T   T   T
  0.2498776665522105  0.2500688301909644  0.2501553172955923   T   T   T
  0.2501396931589968  0.2500883873894759  0.7500986754821446   T   T   T
  0.2496870894223453  0.7500504518183602  0.2496785452174216   T   T   T
  0.7501446849487011  0.2496301164059954  0.7503649531968022   T   T   T
  0.7499896674443790  0.7495296443971131  0.2494744736078243   T   T   T
  0.7496593261880244  0.7498234169683660  0.7498555420922722   T   T   T
  0.2499465488576077  0.7501260252730644  0.7497208730077952   T   T   T
  0.7497911553112615  0.2494360574925771  0.2503790721016600   T   T   T
  0.2057804226465920  0.2912395231853200  0.0000284970498079   T   T   T
  0.2942567998983642  0.2088589159910837  0.4999838429068980   T   T   T
  0.2118081641054315  0.7112433270423172  0.9975308622122062   T   T   T
  0.2880920982534496  0.7887532273235944  0.5025080998830170   T   T   T
  0.7924773108881257  0.2167512991743987  0.0025246278577956   T   T   T
  0.7076492956840637  0.2833014476162607  0.4974395998440810   T   T   T
  0.7870091627381774  0.7814606187842796  0.0002309629053864   T   T   T
  0.7129855219630429  0.7184487391432516  0.4999858648020393   T   T   T
  0.2818398434929942 -0.0001809155346050  0.2039543297679706   T   T   T
  0.2093634439802081  0.9972732664290496  0.7832901920307541   T   T   T
  0.2182235056300471  0.5002523303062284  0.2960374188453194   T   T   T
  0.2906593397996743  0.5027872479211553  0.7166857476328964   T   T   T
  0.7139186195756689 -0.0000428604288132  0.2777084032427126   T   T   T
  0.7820012526548478  0.9973431039175351  0.7142489012034309   T   T   T
  0.7861204979044173  0.5004877314278374  0.2223273876131150   T   T   T
  0.7180745932040979  0.5026880938563620  0.7857587642623780   T   T   T
  0.9973605086900720  0.2138631671935069  0.2920756556318911   T   T   T
 -0.0001366512162098  0.2880364994153251  0.7054774747493673   T   T   T
  0.9974655567468522  0.7859248309188157  0.2884209585472898   T   T   T
  0.9997191477903061  0.7158617000407937  0.7135369564344612   T   T   T
  0.5026973503708982  0.2861953606362792  0.2079475934823191   T   T   T
  0.5002356445079531  0.2121772816246462  0.7944518552866443   T   T   T
  0.5025996949718570  0.7141184826264740  0.2116473426601896   T   T   T
  0.5003925633391259  0.7840730417206732  0.7863573095515557   T   T   T
 
  0.00000000E+00  0.00000000E+00  0.00000000E+00
  0.00000000E+00  0.00000000E+00  0.00000000E+00
  0.00000000E+00  0.00000000E+00  0.00000000E+00
  0.00000000E+00  0.00000000E+00  0.00000000E+00
  0.00000000E+00  0.00000000E+00  0.00000000E+00
  0.00000000E+00  0.00000000E+00  0.00000000E+00
  0.00000000E+00  0.00000000E+00  0.00000000E+00
  0.00000000E+00  0.00000000E+00  0.00000000E+00
  0.00000000E+00  0.00000000E+00  0.00000000E+00
  0.00000000E+00  0.00000000E+00  0.00000000E+00
  0.00000000E+00  0.00000000E+00  0.00000000E+00
  0.00000000E+00  0.00000000E+00  0.00000000E+00
  0.00000000E+00  0.00000000E+00  0.00000000E+00
  0.00000000E+00  0.00000000E+00  0.00000000E+00
  0.00000000E+00  0.00000000E+00  0.00000000E+00
  0.00000000E+00  0.00000000E+00  0.00000000E+00
  0.00000000E+00  0.00000000E+00  0.00000000E+00
  0.00000000E+00  0.00000000E+00  0.00000000E+00
  0.00000000E+00  0.00000000E+00  0.00000000E+00
  0.00000000E+00  0.00000000E+00  0.00000000E+00
  0.00000000E+00  0.00000000E+00  0.00000000E+00
  0.00000000E+00  0.00000000E+00  0.00000000E+00
  0.00000000E+00  0.00000000E+00  0.00000000E+00
  0.00000000E+00  0.00000000E+00  0.00000000E+00
  0.00000000E+00  0.00000000E+00  0.00000000E+00
  0.00000000E+00  0.00000000E+00  0.00000000E+00
  0.00000000E+00  0.00000000E+00  0.00000000E+00
  0.00000000E+00  0.00000000E+00  0.00000000E+00
  0.00000000E+00  0.00000000E+00  0.00000000E+00
  0.00000000E+00  0.00000000E+00  0.00000000E+00
  0.00000000E+00  0.00000000E+00  0.00000000E+00
  0.00000000E+00  0.00000000E+00  0.00000000E+00
  0.00000000E+00  0.00000000E+00  0.00000000E+00
  0.00000000E+00  0.00000000E+00  0.00000000E+00
  0.00000000E+00  0.00000000E+00  0.00000000E+00
  0.00000000E+00  0.00000000E+00  0.00000000E+00
  0.00000000E+00  0.00000000E+00  0.00000000E+00
  0.00000000E+00  0.00000000E+00  0.00000000E+00
  0.00000000E+00  0.00000000E+00  0.00000000E+00
  0.00000000E+00  0.00000000E+00  0.00000000E+00
