MAPbI3-cubic                            
   1.00000000000000     
    12.6680613150076802    0.0000000000000000    0.0000000000000000
     0.0000000000000000   12.6713146463051238    0.0000000000000000
     0.0000000000000000    0.0000000000000000   12.6723368755865984
   Cs   Pb   Sn   I 
     8     4     4    24
Selective dynamics
Direct
  0.0178611780693272  0.0013474040110037  0.0352745825188372   T   T   T
  0.0345595047429988  0.9993347947747957  0.5214169949934248   T   T   T
  0.9759101793653944  0.5011374951442558  0.9659269846706853   T   T   T
  0.9621576895374119  0.4996162413830922  0.4804323389011059   T   T   T
  0.5378423104625881  0.0003837586169078  0.0195676610988941   T   T   T
  0.5240898206346056 -0.0011374951442555  0.5340730153293147   T   T   T
  0.4654404952570011  0.5006652052252043  0.9785830050065752   T   T   T
  0.4821388219306728  0.4986525959889964  0.4647254174811628   T   T   T
  0.2500000000000000  0.2500000000000000  0.2500000000000000   T   T   T
  0.2500000000000000  0.2500000000000000  0.7500000000000000   T   T   T
  0.2500000000000000  0.7500000000000000  0.2500000000000000   T   T   T
  0.7500000000000000  0.7500000000000000  0.7500000000000000   T   T   T
  0.2500000000000000  0.7500000000000000  0.7500000000000000   T   T   T
  0.7500000000000000  0.2500000000000000  0.2500000000000000   T   T   T
  0.7500000000000000  0.2500000000000000  0.7500000000000000   T   T   T
  0.7500000000000000  0.7500000000000000  0.2500000000000000   T   T   T
  0.2076076913725899  0.2909699348848818 -0.0000673167951256   T   T   T
  0.2923923236274077  0.2090300801151158  0.5000673167951256   T   T   T
  0.2098967452773762  0.7113799092704353  0.9975238160462325   T   T   T
  0.2901032697226213  0.7886200907295647  0.5024761839537675   T   T   T
  0.7884529258985747  0.2181044980923096  0.0001787822625879   T   T   T
  0.7115470741014253  0.2818955169076883  0.4998212177374121   T   T   T
  0.7905784082566276  0.7838375258398481  0.0025453417632519   T   T   T
  0.7094215917433724  0.7161624741601519  0.4974546582367481   T   T   T
  0.2825207889481594 -0.0000492769860194  0.2043214012891746   T   T   T
  0.2093014444596428  0.9975042799620363  0.7832832297248707   T   T   T
  0.2174792260518382  0.5000492769860194  0.2956786137108229   T   T   T
  0.2906985705403549  0.5024957200379637  0.7167167702751293   T   T   T
  0.7138365436263170  0.0000600567043684  0.2780536035671214   T   T   T
  0.7821322378786847  0.0024958859688343  0.7137527123325098   T   T   T
  0.7861634563736830  0.4999399432956316  0.2219464114328762   T   T   T
  0.7178677621213153  0.4975041140311657  0.7862472876674902   T   T   T
  0.9973195624314890  0.2135710006513327  0.2903517296410072   T   T   T
  0.9973785512617575  0.2860356097186397  0.7100943482593735   T   T   T
  0.9974495658304152  0.7860968426140333  0.2901842178603393   T   T   T
  0.0022222920231214  0.7136157286340321  0.7094214994575215   T   T   T
  0.5026804375685110  0.2864290143486650  0.2096482853589905   T   T   T
  0.5026214487382425  0.2139644052813580  0.7899056517406265   T   T   T
  0.5025504341695848  0.7139031573859667  0.2098157971396583   T   T   T
  0.4977777079768787  0.7863842713659679  0.7905785005424785   T   T   T
 
  0.00000000E+00  0.00000000E+00  0.00000000E+00
  0.00000000E+00  0.00000000E+00  0.00000000E+00
  0.00000000E+00  0.00000000E+00  0.00000000E+00
  0.00000000E+00  0.00000000E+00  0.00000000E+00
  0.00000000E+00  0.00000000E+00  0.00000000E+00
  0.00000000E+00  0.00000000E+00  0.00000000E+00
  0.00000000E+00  0.00000000E+00  0.00000000E+00
  0.00000000E+00  0.00000000E+00  0.00000000E+00
  0.00000000E+00  0.00000000E+00  0.00000000E+00
  0.00000000E+00  0.00000000E+00  0.00000000E+00
  0.00000000E+00  0.00000000E+00  0.00000000E+00
  0.00000000E+00  0.00000000E+00  0.00000000E+00
  0.00000000E+00  0.00000000E+00  0.00000000E+00
  0.00000000E+00  0.00000000E+00  0.00000000E+00
  0.00000000E+00  0.00000000E+00  0.00000000E+00
  0.00000000E+00  0.00000000E+00  0.00000000E+00
  0.00000000E+00  0.00000000E+00  0.00000000E+00
  0.00000000E+00  0.00000000E+00  0.00000000E+00
  0.00000000E+00  0.00000000E+00  0.00000000E+00
  0.00000000E+00  0.00000000E+00  0.00000000E+00
  0.00000000E+00  0.00000000E+00  0.00000000E+00
  0.00000000E+00  0.00000000E+00  0.00000000E+00
  0.00000000E+00  0.00000000E+00  0.00000000E+00
  0.00000000E+00  0.00000000E+00  0.00000000E+00
  0.00000000E+00  0.00000000E+00  0.00000000E+00
  0.00000000E+00  0.00000000E+00  0.00000000E+00
  0.00000000E+00  0.00000000E+00  0.00000000E+00
  0.00000000E+00  0.00000000E+00  0.00000000E+00
  0.00000000E+00  0.00000000E+00  0.00000000E+00
  0.00000000E+00  0.00000000E+00  0.00000000E+00
  0.00000000E+00  0.00000000E+00  0.00000000E+00
  0.00000000E+00  0.00000000E+00  0.00000000E+00
  0.00000000E+00  0.00000000E+00  0.00000000E+00
  0.00000000E+00  0.00000000E+00  0.00000000E+00
  0.00000000E+00  0.00000000E+00  0.00000000E+00
  0.00000000E+00  0.00000000E+00  0.00000000E+00
  0.00000000E+00  0.00000000E+00  0.00000000E+00
  0.00000000E+00  0.00000000E+00  0.00000000E+00
  0.00000000E+00  0.00000000E+00  0.00000000E+00
  0.00000000E+00  0.00000000E+00  0.00000000E+00
