MAPbI3-cubic                            
   1.00000000000000     
    12.6669895111317885    0.0000000000000000    0.0000000000000000
     0.0000000000000000   12.6703174651365540    0.0000000000000000
     0.0000000000000000    0.0000000000000000   12.6692153003061758
   Cs   Pb   Sn   I 
     8     4     4    24
Selective dynamics
Direct
  0.0126429647080460  0.0000000000000000  0.0362571845351824   T   T   T
  0.0323723810103543  0.0000000000000000  0.5233365656739756   T   T   T
  0.9721549267240794  0.5000000000000000  0.9663598572734988   T   T   T
  0.9621060892051896  0.5000000000000000  0.4819509448270139   T   T   T
  0.5378939107948104  0.0000000000000000  0.0180490551729860   T   T   T
  0.5278450732759206  0.0000000000000000  0.5336401427265012   T   T   T
  0.4676276189896457  0.5000000000000000  0.9766634343260244   T   T   T
  0.4873570352919540  0.5000000000000000  0.4637428154648177   T   T   T
  0.2500000000000000  0.2500000000000000  0.2500000000000000   T   T   T
  0.2500000000000000  0.2500000000000000  0.7500000000000000   T   T   T
  0.2500000000000000  0.7500000000000000  0.2500000000000000   T   T   T
  0.2500000000000000  0.7500000000000000  0.7500000000000000   T   T   T
  0.7500000000000000  0.2500000000000000  0.2500000000000000   T   T   T
  0.7500000000000000  0.2500000000000000  0.7500000000000000   T   T   T
  0.7500000000000000  0.7500000000000000  0.2500000000000000   T   T   T
  0.7500000000000000  0.7500000000000000  0.7500000000000000   T   T   T
  0.2081701729221301  0.2957748372572317 -0.0000391403925203   T   T   T
  0.2918298420778676  0.2042251777427661  0.5000391403925203   T   T   T
  0.2081701729221301  0.7042251627427684 -0.0000391403925203   T   T   T
  0.2918298420778676  0.7957748372572316  0.5000391403925203   T   T   T
  0.7885732826298028  0.2230504112709041 -0.0000955058088336   T   T   T
  0.7114267173701972  0.2769496037290936  0.5000955058088337   T   T   T
  0.7885732826298028  0.7769496037290934 -0.0000955058088336   T   T   T
  0.7114267173701972  0.7230503962709066  0.5000955058088337   T   T   T
  0.2801507123168280  0.0000000000000000  0.1988101429972989   T   T   T
  0.2051248805554040  0.0000000000000000  0.7880572464440287   T   T   T
  0.2198493026831697  0.5000000000000000  0.3011898720026989   T   T   T
  0.2948751344445937  0.5000000000000000  0.7119427535559713   T   T   T
  0.7160104258301182  0.0000000000000000  0.2744599559409117   T   T   T
  0.7814392831543853  0.0000000000000000  0.7216022765302702   T   T   T
  0.7839895741698818  0.5000000000000000  0.2255400590590860   T   T   T
  0.7185607168456147  0.5000000000000000  0.7783977234697298   T   T   T
  0.9971522053439393  0.2142427755034250  0.2907998720883779   T   T   T
  0.9971776448512303  0.2858074588836440  0.7095859555708682   T   T   T
  0.9971522053439393  0.7857572394965726  0.2907998720883779   T   T   T
  0.9971776448512303  0.7141925411163561  0.7095859555708682   T   T   T
  0.5028477946560607  0.2857572394965727  0.2092001429116198   T   T   T
  0.5028223551487697  0.2141925561163538  0.7904140444291318   T   T   T
  0.5028477946560607  0.7142427605034274  0.2092001429116198   T   T   T
  0.5028223551487697  0.7858074588836439  0.7904140444291318   T   T   T
 
  0.00000000E+00  0.00000000E+00  0.00000000E+00
  0.00000000E+00  0.00000000E+00  0.00000000E+00
  0.00000000E+00  0.00000000E+00  0.00000000E+00
  0.00000000E+00  0.00000000E+00  0.00000000E+00
  0.00000000E+00  0.00000000E+00  0.00000000E+00
  0.00000000E+00  0.00000000E+00  0.00000000E+00
  0.00000000E+00  0.00000000E+00  0.00000000E+00
  0.00000000E+00  0.00000000E+00  0.00000000E+00
  0.00000000E+00  0.00000000E+00  0.00000000E+00
  0.00000000E+00  0.00000000E+00  0.00000000E+00
  0.00000000E+00  0.00000000E+00  0.00000000E+00
  0.00000000E+00  0.00000000E+00  0.00000000E+00
  0.00000000E+00  0.00000000E+00  0.00000000E+00
  0.00000000E+00  0.00000000E+00  0.00000000E+00
  0.00000000E+00  0.00000000E+00  0.00000000E+00
  0.00000000E+00  0.00000000E+00  0.00000000E+00
  0.00000000E+00  0.00000000E+00  0.00000000E+00
  0.00000000E+00  0.00000000E+00  0.00000000E+00
  0.00000000E+00  0.00000000E+00  0.00000000E+00
  0.00000000E+00  0.00000000E+00  0.00000000E+00
  0.00000000E+00  0.00000000E+00  0.00000000E+00
  0.00000000E+00  0.00000000E+00  0.00000000E+00
  0.00000000E+00  0.00000000E+00  0.00000000E+00
  0.00000000E+00  0.00000000E+00  0.00000000E+00
  0.00000000E+00  0.00000000E+00  0.00000000E+00
  0.00000000E+00  0.00000000E+00  0.00000000E+00
  0.00000000E+00  0.00000000E+00  0.00000000E+00
  0.00000000E+00  0.00000000E+00  0.00000000E+00
  0.00000000E+00  0.00000000E+00  0.00000000E+00
  0.00000000E+00  0.00000000E+00  0.00000000E+00
  0.00000000E+00  0.00000000E+00  0.00000000E+00
  0.00000000E+00  0.00000000E+00  0.00000000E+00
  0.00000000E+00  0.00000000E+00  0.00000000E+00
  0.00000000E+00  0.00000000E+00  0.00000000E+00
  0.00000000E+00  0.00000000E+00  0.00000000E+00
  0.00000000E+00  0.00000000E+00  0.00000000E+00
  0.00000000E+00  0.00000000E+00  0.00000000E+00
  0.00000000E+00  0.00000000E+00  0.00000000E+00
  0.00000000E+00  0.00000000E+00  0.00000000E+00
  0.00000000E+00  0.00000000E+00  0.00000000E+00
