MAPbI3-cubic                            
   1.00000000000000     
    12.6633274325824008    0.0000000000000000    0.0000000000000000
     0.0000000000000000   12.6642039886762987    0.0000000000000000
     0.0000000000000000    0.0000000000000000   12.6652639298688676
   Cs   Pb   Sn   I 
     8     4     4    24
Selective dynamics
Direct
  0.0206337201664182  0.9997503573070952  0.0359193479456096   T   T   T
  0.0359304173255089  0.0002480741421385  0.5206615674044230   T   T   T
  0.9793662798335819  0.5002496426929048  0.9640806520543904   T   T   T
  0.9640695826744912  0.4997519258578615  0.4793384325955770   T   T   T
  0.5359304173255088  0.0002480741421385  0.0206615674044231   T   T   T
  0.5206337201664181  0.9997503573070952  0.5359193479456096   T   T   T
  0.4640695826744912  0.4997519258578615  0.9793384325955770   T   T   T
  0.4793662798335819  0.5002496426929048  0.4640806520543904   T   T   T
  0.2500000000000000  0.2500000000000000  0.2500000000000000   T   T   T
  0.2500000000000000  0.7500000000000000  0.7500000000000000   T   T   T
  0.7500000000000000  0.2500000000000000  0.7500000000000000   T   T   T
  0.7500000000000000  0.7500000000000000  0.2500000000000000   T   T   T
  0.7500000000000000  0.7500000000000000  0.7500000000000000   T   T   T
  0.2500000000000000  0.2500000000000000  0.7500000000000000   T   T   T
  0.2500000000000000  0.7500000000000000  0.2500000000000000   T   T   T
  0.7500000000000000  0.2500000000000000  0.2500000000000000   T   T   T
  0.2100772510935169  0.2867680179673104  0.9977378120172884   T   T   T
  0.2899227639064808  0.2132319970326872  0.5022621879827116   T   T   T
  0.2096561208377297  0.7130803799054021  0.0022965070807777   T   T   T
  0.2903438941622680  0.7869196200945979  0.4977034929192223   T   T   T
  0.7899227639064808  0.2132319970326872  0.0022621879827116   T   T   T
  0.7100772360935192  0.2867680179673104  0.4977378120172885   T   T   T
  0.7903438941622680  0.7869196200945979  0.9977034929192222   T   T   T
  0.7096561058377320  0.7130803799054021  0.5022965070807778   T   T   T
  0.2821940531940191  0.9976937886063468  0.2097617478374853   T   T   T
  0.2097397186170642  0.0023070822425551  0.7821677620619211   T   T   T
  0.2178059618059785  0.5023062113936532  0.2902382671625124   T   T   T
  0.2902602963829336  0.4976929177574449  0.7178322379380789   T   T   T
  0.7097397036170665  0.0023070822425551  0.2821677620619212   T   T   T
  0.7821940531940191  0.9976937886063468  0.7097617328374877   T   T   T
  0.7902602963829335  0.4976929177574449  0.2178322529380765   T   T   T
  0.7178059468059809  0.5023062113936532  0.7902382671625123   T   T   T
  0.9976776478163990  0.2130506103637084  0.2903594004215883   T   T   T
  0.0023223521836009  0.2869494046362893  0.7096405995784116   T   T   T
  0.0022899687583588  0.7868094224475151  0.2899432817283175   T   T   T
  0.9977100312416411  0.7131905775524849  0.7100567182716825   T   T   T
  0.5023223521836010  0.2869494046362893  0.2096406145784094   T   T   T
  0.4976776478163991  0.2130506103637084  0.7903594004215884   T   T   T
  0.4977100312416412  0.7131905775524849  0.2100567332716802   T   T   T
  0.5022899687583589  0.7868094224475151  0.7899432817283175   T   T   T
 
  0.00000000E+00  0.00000000E+00  0.00000000E+00
  0.00000000E+00  0.00000000E+00  0.00000000E+00
  0.00000000E+00  0.00000000E+00  0.00000000E+00
  0.00000000E+00  0.00000000E+00  0.00000000E+00
  0.00000000E+00  0.00000000E+00  0.00000000E+00
  0.00000000E+00  0.00000000E+00  0.00000000E+00
  0.00000000E+00  0.00000000E+00  0.00000000E+00
  0.00000000E+00  0.00000000E+00  0.00000000E+00
  0.00000000E+00  0.00000000E+00  0.00000000E+00
  0.00000000E+00  0.00000000E+00  0.00000000E+00
  0.00000000E+00  0.00000000E+00  0.00000000E+00
  0.00000000E+00  0.00000000E+00  0.00000000E+00
  0.00000000E+00  0.00000000E+00  0.00000000E+00
  0.00000000E+00  0.00000000E+00  0.00000000E+00
  0.00000000E+00  0.00000000E+00  0.00000000E+00
  0.00000000E+00  0.00000000E+00  0.00000000E+00
  0.00000000E+00  0.00000000E+00  0.00000000E+00
  0.00000000E+00  0.00000000E+00  0.00000000E+00
  0.00000000E+00  0.00000000E+00  0.00000000E+00
  0.00000000E+00  0.00000000E+00  0.00000000E+00
  0.00000000E+00  0.00000000E+00  0.00000000E+00
  0.00000000E+00  0.00000000E+00  0.00000000E+00
  0.00000000E+00  0.00000000E+00  0.00000000E+00
  0.00000000E+00  0.00000000E+00  0.00000000E+00
  0.00000000E+00  0.00000000E+00  0.00000000E+00
  0.00000000E+00  0.00000000E+00  0.00000000E+00
  0.00000000E+00  0.00000000E+00  0.00000000E+00
  0.00000000E+00  0.00000000E+00  0.00000000E+00
  0.00000000E+00  0.00000000E+00  0.00000000E+00
  0.00000000E+00  0.00000000E+00  0.00000000E+00
  0.00000000E+00  0.00000000E+00  0.00000000E+00
  0.00000000E+00  0.00000000E+00  0.00000000E+00
  0.00000000E+00  0.00000000E+00  0.00000000E+00
  0.00000000E+00  0.00000000E+00  0.00000000E+00
  0.00000000E+00  0.00000000E+00  0.00000000E+00
  0.00000000E+00  0.00000000E+00  0.00000000E+00
  0.00000000E+00  0.00000000E+00  0.00000000E+00
  0.00000000E+00  0.00000000E+00  0.00000000E+00
  0.00000000E+00  0.00000000E+00  0.00000000E+00
  0.00000000E+00  0.00000000E+00  0.00000000E+00
