MAPbI3-cubic                            
   1.00000000000000     
    12.6934216067070640    0.0000000000000000    0.0000000000000000
     0.0000000000000000   12.6942802903675620    0.0000000000000000
     0.0000000000000000    0.0000000000000000   12.6950893721022808
   Cs   Pb   Sn   I 
     8     5     3    24
Selective dynamics
Direct
  0.0202962054188530  0.9994437399552020  0.0352542264818403   T   T   T
  0.0352694177407222  0.9979965664315389  0.5224510039212237   T   T   T
  0.9784717746558143  0.5012480151661268  0.9641578230848447   T   T   T
  0.9626988316037233  0.5005373466853859  0.4807084076782157   T   T   T
  0.5373011683962767  0.9994626533146141  0.0192915923217843   T   T   T
  0.5215282253441857  0.9987519848338732  0.5358421769151553   T   T   T
  0.4647305822592778  0.5020034335684611  0.9775489960787763   T   T   T
  0.4797037945811469  0.5005562600447980  0.4647457735181596   T   T   T
  0.2500000000000000  0.2500000000000000  0.2500000000000000   T   T   T
  0.2500000000000000  0.2500000000000000  0.7500000000000000   T   T   T
  0.2500000000000000  0.7500000000000000  0.2500000000000000   T   T   T
  0.7500000000000000  0.2500000000000000  0.2500000000000000   T   T   T
  0.7500000000000000  0.7500000000000000  0.7500000000000000   T   T   T
  0.2500000000000000  0.7500000000000000  0.7500000000000000   T   T   T
  0.7500000000000000  0.2500000000000000  0.7500000000000000   T   T   T
  0.7500000000000000  0.7500000000000000  0.2500000000000000   T   T   T
  0.2069932255640464  0.2896976065976110  0.0000619624752722   T   T   T
  0.2930067894359513  0.2103024084023866  0.4999380375247278   T   T   T
  0.2102861895957009  0.7125346066113346  0.9976291991383249   T   T   T
  0.2897138254042968  0.7874653933886654  0.5023708008616751   T   T   T
  0.7908936330340938  0.2135363361940422  0.9975753311309608   T   T   T
  0.7091063669659062  0.2864636788059555  0.5024246688690392   T   T   T
  0.7893618009180771  0.7859866486291401  0.0024082676278659   T   T   T
  0.7106381990819229  0.7140133513708599  0.4975917323721342   T   T   T
  0.2834418482228742 -0.0000139763489841  0.2056368422662027   T   T   T
  0.2102906978641926  0.9975184275504534  0.7823914058189051   T   T   T
  0.2165581667771235  0.5000139763489843  0.2943631727337950   T   T   T
  0.2897093171358051  0.5024815724495466  0.7176085941810949   T   T   T
  0.7091213943790320  0.9975356772870005  0.2811231537579699   T   T   T
  0.7814266364916278  0.0024440706321547  0.7111971676336001   T   T   T
  0.7908786056209680  0.5024643227129995  0.2188768612420278   T   T   T
  0.7185733635083722  0.4975559293678453  0.7888028323663999   T   T   T
 -0.0000261491196382  0.2099739473999891  0.2928509544449409   T   T   T
  0.9975890356474808  0.2862388273829416  0.7093327812822956   T   T   T
  0.9975392032787541  0.7874994290714161  0.2895194043621044   T   T   T
  0.0024927391758403  0.7139527323401272  0.7104420657121620   T   T   T
  0.5000261491196383  0.2900260676000085  0.2071490605550569   T   T   T
  0.5024109643525192  0.2137611876170561  0.7906672187177044   T   T   T
  0.5024607967212459  0.7125005709285839  0.2104806106378933   T   T   T
  0.4975072608241597  0.7860472676598728  0.7895579342878380   T   T   T
 
  0.00000000E+00  0.00000000E+00  0.00000000E+00
  0.00000000E+00  0.00000000E+00  0.00000000E+00
  0.00000000E+00  0.00000000E+00  0.00000000E+00
  0.00000000E+00  0.00000000E+00  0.00000000E+00
  0.00000000E+00  0.00000000E+00  0.00000000E+00
  0.00000000E+00  0.00000000E+00  0.00000000E+00
  0.00000000E+00  0.00000000E+00  0.00000000E+00
  0.00000000E+00  0.00000000E+00  0.00000000E+00
  0.00000000E+00  0.00000000E+00  0.00000000E+00
  0.00000000E+00  0.00000000E+00  0.00000000E+00
  0.00000000E+00  0.00000000E+00  0.00000000E+00
  0.00000000E+00  0.00000000E+00  0.00000000E+00
  0.00000000E+00  0.00000000E+00  0.00000000E+00
  0.00000000E+00  0.00000000E+00  0.00000000E+00
  0.00000000E+00  0.00000000E+00  0.00000000E+00
  0.00000000E+00  0.00000000E+00  0.00000000E+00
  0.00000000E+00  0.00000000E+00  0.00000000E+00
  0.00000000E+00  0.00000000E+00  0.00000000E+00
  0.00000000E+00  0.00000000E+00  0.00000000E+00
  0.00000000E+00  0.00000000E+00  0.00000000E+00
  0.00000000E+00  0.00000000E+00  0.00000000E+00
  0.00000000E+00  0.00000000E+00  0.00000000E+00
  0.00000000E+00  0.00000000E+00  0.00000000E+00
  0.00000000E+00  0.00000000E+00  0.00000000E+00
  0.00000000E+00  0.00000000E+00  0.00000000E+00
  0.00000000E+00  0.00000000E+00  0.00000000E+00
  0.00000000E+00  0.00000000E+00  0.00000000E+00
  0.00000000E+00  0.00000000E+00  0.00000000E+00
  0.00000000E+00  0.00000000E+00  0.00000000E+00
  0.00000000E+00  0.00000000E+00  0.00000000E+00
  0.00000000E+00  0.00000000E+00  0.00000000E+00
  0.00000000E+00  0.00000000E+00  0.00000000E+00
  0.00000000E+00  0.00000000E+00  0.00000000E+00
  0.00000000E+00  0.00000000E+00  0.00000000E+00
  0.00000000E+00  0.00000000E+00  0.00000000E+00
  0.00000000E+00  0.00000000E+00  0.00000000E+00
  0.00000000E+00  0.00000000E+00  0.00000000E+00
  0.00000000E+00  0.00000000E+00  0.00000000E+00
  0.00000000E+00  0.00000000E+00  0.00000000E+00
  0.00000000E+00  0.00000000E+00  0.00000000E+00
