MASnI3-cubic                            
   1.00000000000000     
    12.5588821018135857    0.0000000000000000    0.0000000000000000
     0.0000000000000000   12.5583715224155501    0.0000000000000000
     0.0000000000000000    0.0000000000000000   12.5579443935593602
   Cs   Sn   I 
     8     8    24
Selective dynamics
Direct
  0.0193571185664331  0.0000000000000000  0.0331218447669000   T   T   T
  0.0331215964632511  0.0000000000000000  0.5193707347937433   T   T   T
  0.9806428814335668  0.5000000000000000  0.9668781552331001   T   T   T
  0.9668784035367488  0.5000000000000000  0.4806292652062569   T   T   T
  0.5331215964632512  0.0000000000000000  0.0193707347937431   T   T   T
  0.5193571185664332  0.0000000000000000  0.5331218447668999   T   T   T
  0.4668784035367489  0.5000000000000000  0.9806292652062567   T   T   T
  0.4806428814335669  0.5000000000000000  0.4668781552330999   T   T   T
  0.2500000000000000  0.2500000000000000  0.2500000000000000   T   T   T
  0.2500000000000000  0.2500000000000000  0.7500000000000000   T   T   T
  0.2500000000000000  0.7500000000000000  0.2500000000000000   T   T   T
  0.2500000000000000  0.7500000000000000  0.7500000000000000   T   T   T
  0.7500000000000000  0.2500000000000000  0.2500000000000000   T   T   T
  0.7500000000000000  0.2500000000000000  0.7500000000000000   T   T   T
  0.7500000000000000  0.7500000000000000  0.2500000000000000   T   T   T
  0.7500000000000000  0.7500000000000000  0.7500000000000000   T   T   T
  0.2120420330844607  0.2831274202899125 -0.0001321477798375   T   T   T
  0.2879579819155369  0.2168725947100853  0.5001321477798375   T   T   T
  0.2120420330844607  0.7168725797100874 -0.0001321477798375   T   T   T
  0.2879579819155369  0.7831274202899126  0.5001321477798375   T   T   T
  0.7879579819155370  0.2168725947100853  0.0001321477798374   T   T   T
  0.7120420180844630  0.2831274202899125  0.4998678522201624   T   T   T
  0.7879579819155370  0.7831274202899126  0.0001321477798374   T   T   T
  0.7120420180844630  0.7168725797100874  0.4998678522201624   T   T   T
  0.2795206816925074  0.0000000000000000  0.2154068613286438   T   T   T
  0.2154261061069268  0.0000000000000000  0.7795322079699634   T   T   T
  0.2204793333074903  0.5000000000000000  0.2845931536713539   T   T   T
  0.2845739088930710  0.5000000000000000  0.7204677920300366   T   T   T
  0.7154260911069291  0.0000000000000000  0.2795322079699633   T   T   T
  0.7795206816925074  0.0000000000000000  0.7154068463286460   T   T   T
  0.7845739088930709  0.5000000000000000  0.2204678070300344   T   T   T
  0.7204793183074926  0.5000000000000000  0.7845931536713540   T   T   T
  0.0001126426750289  0.2169047084753394  0.2879359246823925   T   T   T
 -0.0001126426750289  0.2830953065246583  0.7120640753176075   T   T   T
  0.0001126426750289  0.7830953065246582  0.2879359246823925   T   T   T
 -0.0001126426750289  0.7169046934753418  0.7120640753176075   T   T   T
  0.4998873573249710  0.2830953065246583  0.2120640903176051   T   T   T
  0.5001126426750290  0.2169047084753394  0.7879359246823925   T   T   T
  0.4998873573249710  0.7169046934753418  0.2120640903176051   T   T   T
  0.5001126426750290  0.7830953065246582  0.7879359246823925   T   T   T
 
  0.00000000E+00  0.00000000E+00  0.00000000E+00
  0.00000000E+00  0.00000000E+00  0.00000000E+00
  0.00000000E+00  0.00000000E+00  0.00000000E+00
  0.00000000E+00  0.00000000E+00  0.00000000E+00
  0.00000000E+00  0.00000000E+00  0.00000000E+00
  0.00000000E+00  0.00000000E+00  0.00000000E+00
  0.00000000E+00  0.00000000E+00  0.00000000E+00
  0.00000000E+00  0.00000000E+00  0.00000000E+00
  0.00000000E+00  0.00000000E+00  0.00000000E+00
  0.00000000E+00  0.00000000E+00  0.00000000E+00
  0.00000000E+00  0.00000000E+00  0.00000000E+00
  0.00000000E+00  0.00000000E+00  0.00000000E+00
  0.00000000E+00  0.00000000E+00  0.00000000E+00
  0.00000000E+00  0.00000000E+00  0.00000000E+00
  0.00000000E+00  0.00000000E+00  0.00000000E+00
  0.00000000E+00  0.00000000E+00  0.00000000E+00
  0.00000000E+00  0.00000000E+00  0.00000000E+00
  0.00000000E+00  0.00000000E+00  0.00000000E+00
  0.00000000E+00  0.00000000E+00  0.00000000E+00
  0.00000000E+00  0.00000000E+00  0.00000000E+00
  0.00000000E+00  0.00000000E+00  0.00000000E+00
  0.00000000E+00  0.00000000E+00  0.00000000E+00
  0.00000000E+00  0.00000000E+00  0.00000000E+00
  0.00000000E+00  0.00000000E+00  0.00000000E+00
  0.00000000E+00  0.00000000E+00  0.00000000E+00
  0.00000000E+00  0.00000000E+00  0.00000000E+00
  0.00000000E+00  0.00000000E+00  0.00000000E+00
  0.00000000E+00  0.00000000E+00  0.00000000E+00
  0.00000000E+00  0.00000000E+00  0.00000000E+00
  0.00000000E+00  0.00000000E+00  0.00000000E+00
  0.00000000E+00  0.00000000E+00  0.00000000E+00
  0.00000000E+00  0.00000000E+00  0.00000000E+00
  0.00000000E+00  0.00000000E+00  0.00000000E+00
  0.00000000E+00  0.00000000E+00  0.00000000E+00
  0.00000000E+00  0.00000000E+00  0.00000000E+00
  0.00000000E+00  0.00000000E+00  0.00000000E+00
  0.00000000E+00  0.00000000E+00  0.00000000E+00
  0.00000000E+00  0.00000000E+00  0.00000000E+00
  0.00000000E+00  0.00000000E+00  0.00000000E+00
  0.00000000E+00  0.00000000E+00  0.00000000E+00
