MAPbI3-cubic                            
   1.00000000000000     
    12.6938632505771842    0.0000000000000000    0.0000000000000000
     0.0000000000000000   12.6963707593668911    0.0000000000000000
     0.0000000000000000    0.0000000000000000   12.6966896281480430
   Cs   Pb   Sn   I 
     8     5     3    24
Selective dynamics
Direct
  0.0157604986381709  0.9979870710818811  0.0368900696777136   T   T   T
  0.0330620450185613  0.9976089840417720  0.5254969618290984   T   T   T
  0.9737746936761007  0.5000066363491802  0.9650076979749986   T   T   T
  0.9621225314611735  0.5006350207022663  0.4829946712878342   T   T   T
  0.5378774685388265  0.9993649792977337  0.0170053287121658   T   T   T
  0.5262253063238993 -0.0000066363491801  0.5349923020250014   T   T   T
  0.4669379549814386  0.5023910159582280  0.9745030381709016   T   T   T
  0.4842395013618290  0.5020129289181260  0.4631099303222864   T   T   T
  0.2500000000000000  0.2500000000000000  0.2500000000000000   T   T   T
  0.2500000000000000  0.2500000000000000  0.7500000000000000   T   T   T
  0.2500000000000000  0.7500000000000000  0.2500000000000000   T   T   T
  0.2500000000000000  0.7500000000000000  0.7500000000000000   T   T   T
  0.7500000000000000  0.2500000000000000  0.2500000000000000   T   T   T
  0.7500000000000000  0.2500000000000000  0.7500000000000000   T   T   T
  0.7500000000000000  0.7500000000000000  0.2500000000000000   T   T   T
  0.7500000000000000  0.7500000000000000  0.7500000000000000   T   T   T
  0.2071189633396952  0.2937267353095271 -0.0000381913384672   T   T   T
  0.2928810516603026  0.2062732796904706  0.5000381913384672   T   T   T
  0.2091444679954640  0.7058987483065160 -0.0000431753039640   T   T   T
  0.2908555470045338  0.7941012516934840  0.5000431753039639   T   T   T
  0.7929446656151174  0.2193363383474844  0.9975536869117453   T   T   T
  0.7070553343848826  0.2806636766525133  0.5024463130882547   T   T   T
  0.7883593689285942  0.7793390859745538 -0.0001600499381050   T   T   T
  0.7116406310714058  0.7206609140254462  0.5001600499381050   T   T   T
  0.2819841575914764 -0.0000999735334912  0.1993039567414321   T   T   T
  0.2075429826524957 -0.0001127150348899  0.7872558439992459   T   T   T
  0.2180158574085212  0.5000999735334912  0.3006960582585655   T   T   T
  0.2924570323475020  0.5001127150348899  0.7127441560007541   T   T   T
  0.7094919609532478  0.9974912043842843  0.2760929062906575   T   T   T
  0.7798927693777560  0.9997350161705393  0.7195034015691788   T   T   T
  0.7905080390467522  0.5025087956157157  0.2239071087093330   T   T   T
  0.7201072306222440  0.5002649838294607  0.7804965984308212   T   T   T
  0.9996676837381083  0.2096647015848995  0.2936396144071149   T   T   T
  0.9972290898502102  0.2846818544502279  0.7075042977719410   T   T   T
  0.9972573017173446  0.7879673443913026  0.2896670649989106   T   T   T
  0.9971295247946942  0.7152793463718395  0.7100045883939239   T   T   T
  0.5003323162618917  0.2903353134150982  0.2063604005928827   T   T   T
  0.5027709101497898  0.2153181605497698  0.7924957022280590   T   T   T
  0.5027426982826554  0.7120326556086974  0.2103329500010870   T   T   T
  0.5028704752053058  0.7847206536281605  0.7899954116060761   T   T   T
 
  0.00000000E+00  0.00000000E+00  0.00000000E+00
  0.00000000E+00  0.00000000E+00  0.00000000E+00
  0.00000000E+00  0.00000000E+00  0.00000000E+00
  0.00000000E+00  0.00000000E+00  0.00000000E+00
  0.00000000E+00  0.00000000E+00  0.00000000E+00
  0.00000000E+00  0.00000000E+00  0.00000000E+00
  0.00000000E+00  0.00000000E+00  0.00000000E+00
  0.00000000E+00  0.00000000E+00  0.00000000E+00
  0.00000000E+00  0.00000000E+00  0.00000000E+00
  0.00000000E+00  0.00000000E+00  0.00000000E+00
  0.00000000E+00  0.00000000E+00  0.00000000E+00
  0.00000000E+00  0.00000000E+00  0.00000000E+00
  0.00000000E+00  0.00000000E+00  0.00000000E+00
  0.00000000E+00  0.00000000E+00  0.00000000E+00
  0.00000000E+00  0.00000000E+00  0.00000000E+00
  0.00000000E+00  0.00000000E+00  0.00000000E+00
  0.00000000E+00  0.00000000E+00  0.00000000E+00
  0.00000000E+00  0.00000000E+00  0.00000000E+00
  0.00000000E+00  0.00000000E+00  0.00000000E+00
  0.00000000E+00  0.00000000E+00  0.00000000E+00
  0.00000000E+00  0.00000000E+00  0.00000000E+00
  0.00000000E+00  0.00000000E+00  0.00000000E+00
  0.00000000E+00  0.00000000E+00  0.00000000E+00
  0.00000000E+00  0.00000000E+00  0.00000000E+00
  0.00000000E+00  0.00000000E+00  0.00000000E+00
  0.00000000E+00  0.00000000E+00  0.00000000E+00
  0.00000000E+00  0.00000000E+00  0.00000000E+00
  0.00000000E+00  0.00000000E+00  0.00000000E+00
  0.00000000E+00  0.00000000E+00  0.00000000E+00
  0.00000000E+00  0.00000000E+00  0.00000000E+00
  0.00000000E+00  0.00000000E+00  0.00000000E+00
  0.00000000E+00  0.00000000E+00  0.00000000E+00
  0.00000000E+00  0.00000000E+00  0.00000000E+00
  0.00000000E+00  0.00000000E+00  0.00000000E+00
  0.00000000E+00  0.00000000E+00  0.00000000E+00
  0.00000000E+00  0.00000000E+00  0.00000000E+00
  0.00000000E+00  0.00000000E+00  0.00000000E+00
  0.00000000E+00  0.00000000E+00  0.00000000E+00
  0.00000000E+00  0.00000000E+00  0.00000000E+00
  0.00000000E+00  0.00000000E+00  0.00000000E+00
