MAPbI3-cubic                            
   1.00000000000000     
    12.7809166179613278    0.0000000000000000    0.0000000000000000
     0.0000000000000000   12.7769185723448349    0.0000000000000000
     0.0000000000000000    0.0000000000000000   12.7732148373530610
   Cs   Pb   I 
     8     8    24
Selective dynamics
Direct
  0.0205294320550067  0.0000000000000000  0.0371444221791322   T   T   T
  0.0371332985433241  0.0000000000000000  0.5205419962263491   T   T   T
  0.9794705679449933  0.5000000000000000  0.9628555778208678   T   T   T
  0.9628667014566759  0.5000000000000000  0.4794580037736509   T   T   T
  0.5371332985433241  0.0000000000000000  0.0205419962263491   T   T   T
  0.5205294320550067  0.0000000000000000  0.5371444221791322   T   T   T
  0.4628667014566759  0.5000000000000000  0.9794580037736509   T   T   T
  0.4794705679449933  0.5000000000000000  0.4628555778208678   T   T   T
  0.2500000000000000  0.2500000000000000  0.2500000000000000   T   T   T
  0.2500000000000000  0.2500000000000000  0.7500000000000000   T   T   T
  0.2500000000000000  0.7500000000000000  0.2500000000000000   T   T   T
  0.2500000000000000  0.7500000000000000  0.7500000000000000   T   T   T
  0.7500000000000000  0.2500000000000000  0.2500000000000000   T   T   T
  0.7500000000000000  0.2500000000000000  0.7500000000000000   T   T   T
  0.7500000000000000  0.7500000000000000  0.2500000000000000   T   T   T
  0.7500000000000000  0.7500000000000000  0.7500000000000000   T   T   T
  0.2080067090776581  0.2894408879634369  0.0001474399005161   T   T   T
  0.2919933059223396  0.2105591270365608  0.4998525600994839   T   T   T
  0.2080067090776581  0.7105591120365631  0.0001474399005161   T   T   T
  0.2919933059223396  0.7894408879634369  0.4998525600994839   T   T   T
  0.7919933059223396  0.2105591270365608  0.9998525600994839   T   T   T
  0.7080066940776604  0.2894408879634369  0.5001474399005161   T   T   T
  0.7919933059223396  0.7894408879634369  0.9998525600994839   T   T   T
  0.7080066940776604  0.7105591120365631  0.5001474399005161   T   T   T
  0.2820025782338149  0.0000000000000000  0.2043875645760096   T   T   T
  0.2044007803661358  0.0000000000000000  0.7820149805276557   T   T   T
  0.2179974367661828  0.5000000000000000  0.2956124504239881   T   T   T
  0.2955992346338618  0.5000000000000000  0.7179850194723443   T   T   T
  0.7044007653661382  0.0000000000000000  0.2820149805276557   T   T   T
  0.7820025782338149  0.0000000000000000  0.7043875495760119   T   T   T
  0.7955992346338618  0.5000000000000000  0.2179850344723420   T   T   T
  0.7179974217661851  0.5000000000000000  0.7956124504239881   T   T   T
  0.9998526791877964  0.2105995818796771  0.2919569615852993   T   T   T
  0.0001473208122036  0.2894004331203206  0.7080430384147007   T   T   T
  0.9998526791877964  0.7894004331203206  0.2919569615852993   T   T   T
  0.0001473208122036  0.7105995668796794  0.7080430384147007   T   T   T
  0.5001473208122036  0.2894004331203206  0.2080430534146984   T   T   T
  0.4998526791877964  0.2105995818796771  0.7919569615852993   T   T   T
  0.5001473208122036  0.7105995668796794  0.2080430534146984   T   T   T
  0.4998526791877964  0.7894004331203206  0.7919569615852993   T   T   T
 
  0.00000000E+00  0.00000000E+00  0.00000000E+00
  0.00000000E+00  0.00000000E+00  0.00000000E+00
  0.00000000E+00  0.00000000E+00  0.00000000E+00
  0.00000000E+00  0.00000000E+00  0.00000000E+00
  0.00000000E+00  0.00000000E+00  0.00000000E+00
  0.00000000E+00  0.00000000E+00  0.00000000E+00
  0.00000000E+00  0.00000000E+00  0.00000000E+00
  0.00000000E+00  0.00000000E+00  0.00000000E+00
  0.00000000E+00  0.00000000E+00  0.00000000E+00
  0.00000000E+00  0.00000000E+00  0.00000000E+00
  0.00000000E+00  0.00000000E+00  0.00000000E+00
  0.00000000E+00  0.00000000E+00  0.00000000E+00
  0.00000000E+00  0.00000000E+00  0.00000000E+00
  0.00000000E+00  0.00000000E+00  0.00000000E+00
  0.00000000E+00  0.00000000E+00  0.00000000E+00
  0.00000000E+00  0.00000000E+00  0.00000000E+00
  0.00000000E+00  0.00000000E+00  0.00000000E+00
  0.00000000E+00  0.00000000E+00  0.00000000E+00
  0.00000000E+00  0.00000000E+00  0.00000000E+00
  0.00000000E+00  0.00000000E+00  0.00000000E+00
  0.00000000E+00  0.00000000E+00  0.00000000E+00
  0.00000000E+00  0.00000000E+00  0.00000000E+00
  0.00000000E+00  0.00000000E+00  0.00000000E+00
  0.00000000E+00  0.00000000E+00  0.00000000E+00
  0.00000000E+00  0.00000000E+00  0.00000000E+00
  0.00000000E+00  0.00000000E+00  0.00000000E+00
  0.00000000E+00  0.00000000E+00  0.00000000E+00
  0.00000000E+00  0.00000000E+00  0.00000000E+00
  0.00000000E+00  0.00000000E+00  0.00000000E+00
  0.00000000E+00  0.00000000E+00  0.00000000E+00
  0.00000000E+00  0.00000000E+00  0.00000000E+00
  0.00000000E+00  0.00000000E+00  0.00000000E+00
  0.00000000E+00  0.00000000E+00  0.00000000E+00
  0.00000000E+00  0.00000000E+00  0.00000000E+00
  0.00000000E+00  0.00000000E+00  0.00000000E+00
  0.00000000E+00  0.00000000E+00  0.00000000E+00
  0.00000000E+00  0.00000000E+00  0.00000000E+00
  0.00000000E+00  0.00000000E+00  0.00000000E+00
  0.00000000E+00  0.00000000E+00  0.00000000E+00
  0.00000000E+00  0.00000000E+00  0.00000000E+00
