MAPbI3-cubic                            
   1.00000000000000     
    12.6954465593846919    0.0000000000000000    0.0000000000000000
     0.0000000000000000   12.6943750254011842    0.0000000000000000
     0.0000000000000000    0.0000000000000000   12.6954008488707117
   Cs   Pb   Sn   I 
     8     5     3    24
Selective dynamics
Direct
  0.0202535069858957  0.9998468149635231  0.0350740782230618   T   T   T
  0.0352188125147107  0.9998933994943229  0.5223750883086070   T   T   T
  0.9782556554678568  0.5019719111635580  0.9639403006781382   T   T   T
  0.9629558354248198  0.5015708295357573  0.4802319079283630   T   T   T
  0.5370441645751802  0.9984291704642427  0.0197680920716369   T   T   T
  0.5217443445321432  0.9980280888364420  0.5360596993218618   T   T   T
  0.4647811874852893  0.5001066005056771  0.9776249116913930   T   T   T
  0.4797464930141043  0.5001531850364769  0.4649259217769383   T   T   T
  0.2500000000000000  0.2500000000000000  0.2500000000000000   T   T   T
  0.2500000000000000  0.2500000000000000  0.7500000000000000   T   T   T
  0.2500000000000000  0.7500000000000000  0.2500000000000000   T   T   T
  0.7500000000000000  0.2500000000000000  0.7500000000000000   T   T   T
  0.7500000000000000  0.7500000000000000  0.2500000000000000   T   T   T
  0.7500000000000000  0.7500000000000000  0.7500000000000000   T   T   T
  0.2500000000000000  0.7500000000000000  0.7500000000000000   T   T   T
  0.7500000000000000  0.2500000000000000  0.2500000000000000   T   T   T
  0.2069432350969067  0.2898862429819092 -0.0000133473958857   T   T   T
  0.2930567799030909  0.2101137720180886  0.5000133473958858   T   T   T
  0.2105127369406677  0.7127992898830546  0.9973809193466697   T   T   T
  0.2894872780593299  0.7872007101169454  0.5026190806533303   T   T   T
  0.7904512520082946  0.2137120410320560  0.0023769262237101   T   T   T
  0.7095487479917054  0.2862879739679418  0.4976230737762899   T   T   T
  0.7897376834567186  0.7865028886177902  0.9975081890848234   T   T   T
  0.7102623165432814  0.7134971113822098  0.5024918109151766   T   T   T
  0.2835359324991484  0.9999889079439686  0.2057394559116206   T   T   T
  0.2101333508197932  0.9973352304131421  0.7822846161129925   T   T   T
  0.2164640825008493  0.5000110920560314  0.2942605590883772   T   T   T
  0.2898666641802045  0.5026647695868579  0.7177153838870075   T   T   T
  0.7090188378010527  0.0023607857296039  0.2812787417503974   T   T   T
  0.7814143069014466  0.9974405316216713  0.7106872037870283   T   T   T
  0.7909811621989473  0.4976392142703961  0.2187212732496002   T   T   T
  0.7185856930985534  0.5025594683783287  0.7893127962129717   T   T   T
  0.9975206758838187  0.2121792470930175  0.2908019389234863   T   T   T
 -0.0001005275734964  0.2882879242342322  0.7072568252665880   T   T   T
 -0.0001984600341248  0.7895502718893469  0.2915782795418052   T   T   T
  0.9999146595876711  0.7157002923294379  0.7124123111509443   T   T   T
  0.5024793241161813  0.2878207679069802  0.2091980760765113   T   T   T
  0.5001005275734964  0.2117120907657655  0.7927431747334120   T   T   T
  0.5001984600341248  0.7104497281106531  0.2084217354581925   T   T   T
  0.5000853404123289  0.7842997076705621  0.7875876888490557   T   T   T
 
  0.00000000E+00  0.00000000E+00  0.00000000E+00
  0.00000000E+00  0.00000000E+00  0.00000000E+00
  0.00000000E+00  0.00000000E+00  0.00000000E+00
  0.00000000E+00  0.00000000E+00  0.00000000E+00
  0.00000000E+00  0.00000000E+00  0.00000000E+00
  0.00000000E+00  0.00000000E+00  0.00000000E+00
  0.00000000E+00  0.00000000E+00  0.00000000E+00
  0.00000000E+00  0.00000000E+00  0.00000000E+00
  0.00000000E+00  0.00000000E+00  0.00000000E+00
  0.00000000E+00  0.00000000E+00  0.00000000E+00
  0.00000000E+00  0.00000000E+00  0.00000000E+00
  0.00000000E+00  0.00000000E+00  0.00000000E+00
  0.00000000E+00  0.00000000E+00  0.00000000E+00
  0.00000000E+00  0.00000000E+00  0.00000000E+00
  0.00000000E+00  0.00000000E+00  0.00000000E+00
  0.00000000E+00  0.00000000E+00  0.00000000E+00
  0.00000000E+00  0.00000000E+00  0.00000000E+00
  0.00000000E+00  0.00000000E+00  0.00000000E+00
  0.00000000E+00  0.00000000E+00  0.00000000E+00
  0.00000000E+00  0.00000000E+00  0.00000000E+00
  0.00000000E+00  0.00000000E+00  0.00000000E+00
  0.00000000E+00  0.00000000E+00  0.00000000E+00
  0.00000000E+00  0.00000000E+00  0.00000000E+00
  0.00000000E+00  0.00000000E+00  0.00000000E+00
  0.00000000E+00  0.00000000E+00  0.00000000E+00
  0.00000000E+00  0.00000000E+00  0.00000000E+00
  0.00000000E+00  0.00000000E+00  0.00000000E+00
  0.00000000E+00  0.00000000E+00  0.00000000E+00
  0.00000000E+00  0.00000000E+00  0.00000000E+00
  0.00000000E+00  0.00000000E+00  0.00000000E+00
  0.00000000E+00  0.00000000E+00  0.00000000E+00
  0.00000000E+00  0.00000000E+00  0.00000000E+00
  0.00000000E+00  0.00000000E+00  0.00000000E+00
  0.00000000E+00  0.00000000E+00  0.00000000E+00
  0.00000000E+00  0.00000000E+00  0.00000000E+00
  0.00000000E+00  0.00000000E+00  0.00000000E+00
  0.00000000E+00  0.00000000E+00  0.00000000E+00
  0.00000000E+00  0.00000000E+00  0.00000000E+00
  0.00000000E+00  0.00000000E+00  0.00000000E+00
  0.00000000E+00  0.00000000E+00  0.00000000E+00
