MAPbI3-cubic                            
   1.00000000000000     
    12.6394395565677726    0.0000000000000000    0.0000000000000000
     0.0000000000000000   12.6455454901910027    0.0000000000000000
     0.0000000000000000    0.0000000000000000   12.6495890018939541
   Cs   Pb   Sn   I 
     8     3     5    24
Selective dynamics
Direct
  0.0159106054032709  0.0001844596356716  0.0342681544278605   T   T   T
  0.0325472495139925  0.9990954968779076  0.5241938104210442   T   T   T
  0.9740998363352343  0.5021430573231880  0.9667839477864238   T   T   T
  0.9627275836188881  0.5019076141273858  0.4834151605368724   T   T   T
  0.5372724163811119  0.9980923858726213  0.0165848394631275   T   T   T
  0.5259001636647657  0.9978569426768120  0.5332160522135762   T   T   T
  0.4674527504860075  0.5009045031220924  0.9758061895789558   T   T   T
  0.4840893945967290  0.4998155403643285  0.4657318455721395   T   T   T
  0.2500000000000000  0.2500000000000000  0.2500000000000000   T   T   T
  0.2500000000000000  0.2500000000000000  0.7500000000000000   T   T   T
  0.2500000000000000  0.7500000000000000  0.2500000000000000   T   T   T
  0.2500000000000000  0.7500000000000000  0.7500000000000000   T   T   T
  0.7500000000000000  0.2500000000000000  0.2500000000000000   T   T   T
  0.7500000000000000  0.2500000000000000  0.7500000000000000   T   T   T
  0.7500000000000000  0.7500000000000000  0.2500000000000000   T   T   T
  0.7500000000000000  0.7500000000000000  0.7500000000000000   T   T   T
  0.2068390757673364  0.2927325249107262 -0.0001477819883022   T   T   T
  0.2931609392326614  0.2072674900892715  0.5001477819883021   T   T   T
  0.2113301050758060  0.7096175334846786  0.9975108812822732   T   T   T
  0.2886699099241916  0.7903824665153214  0.5024891187177268   T   T   T
  0.7897623283612710  0.2214040350909808  0.0000924596975826   T   T   T
  0.7102376716387290  0.2785959799090170  0.4999075403024175   T   T   T
  0.7880836251039508  0.7788460914658601 -0.0000371599977460   T   T   T
  0.7119163748960492  0.7211539085341399  0.5000371599977460   T   T   T
  0.2825283347354788 -0.0001897224311783  0.2013541975707817   T   T   T
  0.2113505798337259  0.9975276545485543  0.7851620558228085   T   T   T
  0.2174716802645190  0.5001897224311782  0.2986458174292160   T   T   T
  0.2886494351662720  0.5024723454514457  0.7148379441771915   T   T   T
  0.7131320294726525  0.9999870939673783  0.2750525766635818   T   T   T
  0.7794175376380743 -0.0002193213847435  0.7204464981279128   T   T   T
  0.7868679705273475  0.5000129060326217  0.2249474383364160   T   T   T
  0.7205824623619257  0.5002193213847437  0.7795535018720872   T   T   T
  0.9972092074952874  0.2125970181200954  0.2913840585185952   T   T   T
  0.9972407040160156  0.2838911866440880  0.7083629918163549   T   T   T
  0.9972998937394237  0.7871597168768745  0.2893339637089122   T   T   T
 -0.0003237519884627  0.7177713177012170  0.7123272103713152   T   T   T
  0.5027907925047126  0.2874029968799023  0.2086159564814024   T   T   T
  0.5027592959839773  0.2161088283559097  0.7916370081836451   T   T   T
  0.5027001062605763  0.7128402831231255  0.2106660512910856   T   T   T
  0.5003237519884628  0.7822286822987830  0.7876727896286848   T   T   T
 
  0.00000000E+00  0.00000000E+00  0.00000000E+00
  0.00000000E+00  0.00000000E+00  0.00000000E+00
  0.00000000E+00  0.00000000E+00  0.00000000E+00
  0.00000000E+00  0.00000000E+00  0.00000000E+00
  0.00000000E+00  0.00000000E+00  0.00000000E+00
  0.00000000E+00  0.00000000E+00  0.00000000E+00
  0.00000000E+00  0.00000000E+00  0.00000000E+00
  0.00000000E+00  0.00000000E+00  0.00000000E+00
  0.00000000E+00  0.00000000E+00  0.00000000E+00
  0.00000000E+00  0.00000000E+00  0.00000000E+00
  0.00000000E+00  0.00000000E+00  0.00000000E+00
  0.00000000E+00  0.00000000E+00  0.00000000E+00
  0.00000000E+00  0.00000000E+00  0.00000000E+00
  0.00000000E+00  0.00000000E+00  0.00000000E+00
  0.00000000E+00  0.00000000E+00  0.00000000E+00
  0.00000000E+00  0.00000000E+00  0.00000000E+00
  0.00000000E+00  0.00000000E+00  0.00000000E+00
  0.00000000E+00  0.00000000E+00  0.00000000E+00
  0.00000000E+00  0.00000000E+00  0.00000000E+00
  0.00000000E+00  0.00000000E+00  0.00000000E+00
  0.00000000E+00  0.00000000E+00  0.00000000E+00
  0.00000000E+00  0.00000000E+00  0.00000000E+00
  0.00000000E+00  0.00000000E+00  0.00000000E+00
  0.00000000E+00  0.00000000E+00  0.00000000E+00
  0.00000000E+00  0.00000000E+00  0.00000000E+00
  0.00000000E+00  0.00000000E+00  0.00000000E+00
  0.00000000E+00  0.00000000E+00  0.00000000E+00
  0.00000000E+00  0.00000000E+00  0.00000000E+00
  0.00000000E+00  0.00000000E+00  0.00000000E+00
  0.00000000E+00  0.00000000E+00  0.00000000E+00
  0.00000000E+00  0.00000000E+00  0.00000000E+00
  0.00000000E+00  0.00000000E+00  0.00000000E+00
  0.00000000E+00  0.00000000E+00  0.00000000E+00
  0.00000000E+00  0.00000000E+00  0.00000000E+00
  0.00000000E+00  0.00000000E+00  0.00000000E+00
  0.00000000E+00  0.00000000E+00  0.00000000E+00
  0.00000000E+00  0.00000000E+00  0.00000000E+00
  0.00000000E+00  0.00000000E+00  0.00000000E+00
  0.00000000E+00  0.00000000E+00  0.00000000E+00
  0.00000000E+00  0.00000000E+00  0.00000000E+00
