MAPbI3-cubic                            
   1.00000000000000     
    12.6204213591868637    0.0000000000000000    0.0000000000000000
     0.0000000000000000   12.6230302112910344    0.0000000000000000
     0.0000000000000000    0.0000000000000000   12.6282676539969803
   Cs   Pb   Sn   I 
     8     2     6    24
Selective dynamics
Direct
  0.0162064971593373  0.9991448558722967  0.0341560142300668   T   T   T
  0.0311562488909635  0.9972809248816066  0.5214245595083341   T   T   T
  0.9758998671631103  0.5037881571200192  0.9682724587092453   T   T   T
  0.9656145837228135  0.5017232254681508  0.4813677564301261   T   T   T
  0.5342960750624270  0.9979654376456122  0.0185614654466979   T   T   T
  0.5243018066633337  0.9963489076140272  0.5318124009940384   T   T   T
  0.4686660522630844  0.5029168335330222  0.9784409429883977   T   T   T
  0.4839411085832636  0.5006842107989733  0.4659729424115361   T   T   T
  0.2496233789778809  0.2502670867228067  0.2500719582487090   T   T   T
  0.2499310257181076  0.2500412766520042  0.7501021327577000   T   T   T
  0.2502159053482566  0.7500152032410122  0.2500645896621116   T   T   T
  0.2495371918239504  0.7501682673238680  0.7500035528089017   T   T   T
  0.7497148886934901  0.2500140548171773  0.2503090051466766   T   T   T
  0.7498800641826797  0.2494545370454309  0.7502894662621220   T   T   T
  0.7501441712276137  0.7499479918922031  0.2501599541515713   T   T   T
  0.7495191301045282  0.7495985703352922  0.7503430557767750   T   T   T
  0.2054742494361026  0.2906936496013858  0.0000423678708034   T   T   T
  0.2946283914659283  0.2092601591796055  0.4999278922628988   T   T   T
  0.2142747823192993  0.7139550524206287  0.9999054714001786   T   T   T
  0.2857174514560855  0.7862424397941663  0.4999278649777677   T   T   T
  0.7903067681158944  0.2205307709797762 -0.0002743374584121   T   T   T
  0.7099273544478263  0.2791890229182381  0.4995645305159286   T   T   T
  0.7860706716299966  0.7795828524223500 -0.0000149993373227   T   T   T
  0.7139557345891392  0.7204121392887793  0.4999182409015134   T   T   T
  0.2798054986246200  0.9972349770687770  0.2074819013677016   T   T   T
  0.2104003627704304  0.9972214436734805  0.7833249177990889   T   T   T
  0.2204219203702460  0.5027095054891968  0.2924602530649189   T   T   T
  0.2895654767394764  0.5027267505471814  0.7166388934169436   T   T   T
  0.7154275494192919 -0.0001698725859124  0.2758561167494586   T   T   T
  0.7798367910310517  0.0000914816023792  0.7188148704886506   T   T   T
  0.7844879762852337  0.5003259879922877  0.2239896549380234   T   T   T
  0.7202333396594328  0.5006171417152248  0.7813849147884703   T   T   T
  0.9973864556049620  0.2148041148197355  0.2926112448929841   T   T   T
  0.9974102633306089  0.2847012571744667  0.7078167237736014   T   T   T
 -0.0004254541539188  0.7829196005031359  0.2858644013039310   T   T   T
 -0.0000062854484203  0.7167958619842347  0.7138513225753623   T   T   T
  0.5028484557974352  0.2852239653829473  0.2070399134423953   T   T   T
  0.5028847267656921  0.2152427681735249  0.7922758927305913   T   T   T
  0.5001051712739691  0.7171040923832754  0.2141454466368742   T   T   T
  0.5006144128847672  0.7832253565076218  0.7860943053646215   T   T   T
 
  0.00000000E+00  0.00000000E+00  0.00000000E+00
  0.00000000E+00  0.00000000E+00  0.00000000E+00
  0.00000000E+00  0.00000000E+00  0.00000000E+00
  0.00000000E+00  0.00000000E+00  0.00000000E+00
  0.00000000E+00  0.00000000E+00  0.00000000E+00
  0.00000000E+00  0.00000000E+00  0.00000000E+00
  0.00000000E+00  0.00000000E+00  0.00000000E+00
  0.00000000E+00  0.00000000E+00  0.00000000E+00
  0.00000000E+00  0.00000000E+00  0.00000000E+00
  0.00000000E+00  0.00000000E+00  0.00000000E+00
  0.00000000E+00  0.00000000E+00  0.00000000E+00
  0.00000000E+00  0.00000000E+00  0.00000000E+00
  0.00000000E+00  0.00000000E+00  0.00000000E+00
  0.00000000E+00  0.00000000E+00  0.00000000E+00
  0.00000000E+00  0.00000000E+00  0.00000000E+00
  0.00000000E+00  0.00000000E+00  0.00000000E+00
  0.00000000E+00  0.00000000E+00  0.00000000E+00
  0.00000000E+00  0.00000000E+00  0.00000000E+00
  0.00000000E+00  0.00000000E+00  0.00000000E+00
  0.00000000E+00  0.00000000E+00  0.00000000E+00
  0.00000000E+00  0.00000000E+00  0.00000000E+00
  0.00000000E+00  0.00000000E+00  0.00000000E+00
  0.00000000E+00  0.00000000E+00  0.00000000E+00
  0.00000000E+00  0.00000000E+00  0.00000000E+00
  0.00000000E+00  0.00000000E+00  0.00000000E+00
  0.00000000E+00  0.00000000E+00  0.00000000E+00
  0.00000000E+00  0.00000000E+00  0.00000000E+00
  0.00000000E+00  0.00000000E+00  0.00000000E+00
  0.00000000E+00  0.00000000E+00  0.00000000E+00
  0.00000000E+00  0.00000000E+00  0.00000000E+00
  0.00000000E+00  0.00000000E+00  0.00000000E+00
  0.00000000E+00  0.00000000E+00  0.00000000E+00
  0.00000000E+00  0.00000000E+00  0.00000000E+00
  0.00000000E+00  0.00000000E+00  0.00000000E+00
  0.00000000E+00  0.00000000E+00  0.00000000E+00
  0.00000000E+00  0.00000000E+00  0.00000000E+00
  0.00000000E+00  0.00000000E+00  0.00000000E+00
  0.00000000E+00  0.00000000E+00  0.00000000E+00
  0.00000000E+00  0.00000000E+00  0.00000000E+00
  0.00000000E+00  0.00000000E+00  0.00000000E+00
