MAPbI3-cubic                            
   1.00000000000000     
    12.6118942286929201    0.0000000000000000    0.0000000000000000
     0.0000000000000000   12.6128929833012755    0.0000000000000000
     0.0000000000000000    0.0000000000000000   12.6136989532600516
   Cs   Pb   Sn   I 
     8     2     6    24
Selective dynamics
Direct
  0.0178687002449121  0.9994183265865387  0.0351322174335168   T   T   T
  0.0332172777770073 -0.0012330519155291  0.5211626116682186   T   T   T
  0.9775898848821235  0.4996427925459509  0.9664090153291625   T   T   T
  0.9643778486308079  0.4985990692116095  0.4812250790172582   T   T   T
  0.5356221513691921  0.0014009307883904  0.0187749209827419   T   T   T
  0.5224101151178765  0.0003572074540491  0.5335909846708375   T   T   T
  0.4667827222229927  0.5012330519155292  0.9788373883317814   T   T   T
  0.4821312997550879  0.5005816734134613  0.4648677825664833   T   T   T
  0.2500000000000000  0.2500000000000000  0.2500000000000000   T   T   T
  0.2500000000000000  0.7500000000000000  0.7500000000000000   T   T   T
  0.7500000000000000  0.2500000000000000  0.2500000000000000   T   T   T
  0.7500000000000000  0.2500000000000000  0.7500000000000000   T   T   T
  0.7500000000000000  0.7500000000000000  0.2500000000000000   T   T   T
  0.7500000000000000  0.7500000000000000  0.7500000000000000   T   T   T
  0.2500000000000000  0.2500000000000000  0.7500000000000000   T   T   T
  0.2500000000000000  0.7500000000000000  0.2500000000000000   T   T   T
  0.2099498626311780  0.2882432046890163  0.9975350410505622   T   T   T
  0.2900501523688197  0.2117568103109814  0.5024649589494378   T   T   T
  0.2096810815645017  0.7116005217529759  0.0024658066097469   T   T   T
  0.2903189334354960  0.7883994782470241  0.4975341933902531   T   T   T
  0.7883920411814277  0.2180181038743132 -0.0000252822729644   T   T   T
  0.7116079588185723  0.2819819111256844  0.5000252822729645   T   T   T
  0.7880070557326302  0.7815762221468081  0.0001004836267086   T   T   T
  0.7119929442673698  0.7184237778531919  0.4998995163732915   T   T   T
  0.2808550160533875  0.9974793851849426  0.2084338270234135   T   T   T
  0.2104856457969793  0.0024908428021002  0.7829099089095234   T   T   T
  0.2191449989466102  0.5025206148150574  0.2915661879765842   T   T   T
  0.2895143692030184  0.4975091571978998  0.7170900910904766   T   T   T
  0.7151136849996571 -0.0000628986246570  0.2784000515177132   T   T   T
  0.7805639761916533  0.0000714320853077  0.7171279657993855   T   T   T
  0.7848863150003429  0.5000628986246569  0.2215999634822843   T   T   T
  0.7194360238083467  0.4999285679146923  0.7828720342006145   T   T   T
  0.9974280322317143  0.2143161888073752  0.2898740981126325   T   T   T
  0.9997724901995267  0.2841440420388923  0.7115211695705934   T   T   T
 -0.0001381930067609  0.7842408036773231  0.2882418627334250   T   T   T
  0.9974291898107005  0.7141229236718464  0.7097644717001405   T   T   T
  0.5025719677682857  0.2856838261926223  0.2101259168873650   T   T   T
  0.5002275098004733  0.2158559729611053  0.7884788304294066   T   T   T
  0.5001381930067610  0.7157591963226769  0.2117581522665727   T   T   T
  0.5025708101892995  0.7858770763281536  0.7902355282998595   T   T   T
 
  0.00000000E+00  0.00000000E+00  0.00000000E+00
  0.00000000E+00  0.00000000E+00  0.00000000E+00
  0.00000000E+00  0.00000000E+00  0.00000000E+00
  0.00000000E+00  0.00000000E+00  0.00000000E+00
  0.00000000E+00  0.00000000E+00  0.00000000E+00
  0.00000000E+00  0.00000000E+00  0.00000000E+00
  0.00000000E+00  0.00000000E+00  0.00000000E+00
  0.00000000E+00  0.00000000E+00  0.00000000E+00
  0.00000000E+00  0.00000000E+00  0.00000000E+00
  0.00000000E+00  0.00000000E+00  0.00000000E+00
  0.00000000E+00  0.00000000E+00  0.00000000E+00
  0.00000000E+00  0.00000000E+00  0.00000000E+00
  0.00000000E+00  0.00000000E+00  0.00000000E+00
  0.00000000E+00  0.00000000E+00  0.00000000E+00
  0.00000000E+00  0.00000000E+00  0.00000000E+00
  0.00000000E+00  0.00000000E+00  0.00000000E+00
  0.00000000E+00  0.00000000E+00  0.00000000E+00
  0.00000000E+00  0.00000000E+00  0.00000000E+00
  0.00000000E+00  0.00000000E+00  0.00000000E+00
  0.00000000E+00  0.00000000E+00  0.00000000E+00
  0.00000000E+00  0.00000000E+00  0.00000000E+00
  0.00000000E+00  0.00000000E+00  0.00000000E+00
  0.00000000E+00  0.00000000E+00  0.00000000E+00
  0.00000000E+00  0.00000000E+00  0.00000000E+00
  0.00000000E+00  0.00000000E+00  0.00000000E+00
  0.00000000E+00  0.00000000E+00  0.00000000E+00
  0.00000000E+00  0.00000000E+00  0.00000000E+00
  0.00000000E+00  0.00000000E+00  0.00000000E+00
  0.00000000E+00  0.00000000E+00  0.00000000E+00
  0.00000000E+00  0.00000000E+00  0.00000000E+00
  0.00000000E+00  0.00000000E+00  0.00000000E+00
  0.00000000E+00  0.00000000E+00  0.00000000E+00
  0.00000000E+00  0.00000000E+00  0.00000000E+00
  0.00000000E+00  0.00000000E+00  0.00000000E+00
  0.00000000E+00  0.00000000E+00  0.00000000E+00
  0.00000000E+00  0.00000000E+00  0.00000000E+00
  0.00000000E+00  0.00000000E+00  0.00000000E+00
  0.00000000E+00  0.00000000E+00  0.00000000E+00
  0.00000000E+00  0.00000000E+00  0.00000000E+00
  0.00000000E+00  0.00000000E+00  0.00000000E+00
