MAPbI3-cubic                            
   1.00000000000000     
    12.5854094931046667    0.0000000000000000    0.0000000000000000
     0.0000000000000000   12.5862407796320799    0.0000000000000000
     0.0000000000000000    0.0000000000000000   12.5870123688816680
   Cs   Pb   Sn   I 
     8     1     7    24
Selective dynamics
Direct
  0.0190944984077871  0.9992192051439726  0.0334392796661898   T   T   T
  0.0335727256265626  0.9982894374437714  0.5215237531302497   T   T   T
  0.9792902123615844  0.5015211732829720  0.9656349764002425   T   T   T
  0.9643799556473404  0.5002506833131207  0.4818789236814231   T   T   T
  0.5356200443526596  0.9997493166868793  0.0181210763185769   T   T   T
  0.5207097876384156  0.9984788267170280  0.5343650235997575   T   T   T
  0.4664272743734373  0.5017105625562286  0.9784762468697503   T   T   T
  0.4809055015922129  0.5007807948560274  0.4665607203338101   T   T   T
  0.2500000000000000  0.2500000000000000  0.2500000000000000   T   T   T
  0.2500000000000000  0.2500000000000000  0.7500000000000000   T   T   T
  0.2500000000000000  0.7500000000000000  0.2500000000000000   T   T   T
  0.2500000000000000  0.7500000000000000  0.7500000000000000   T   T   T
  0.7500000000000000  0.2500000000000000  0.2500000000000000   T   T   T
  0.7500000000000000  0.2500000000000000  0.7500000000000000   T   T   T
  0.7500000000000000  0.7500000000000000  0.2500000000000000   T   T   T
  0.7500000000000000  0.7500000000000000  0.7500000000000000   T   T   T
  0.2091566366579413  0.2866187716590477  0.9973404471480618   T   T   T
  0.2908433783420565  0.2133812433409499  0.5026595528519382   T   T   T
  0.2126374420079211  0.7154118002738621 -0.0001094893518637   T   T   T
  0.2873625729920765  0.7845881997261379  0.5001094893518637   T   T   T
  0.7888291985106163  0.2170217401261503 -0.0000285565200939   T   T   T
  0.7111708014893837  0.2829782748738474  0.5000285565200939   T   T   T
  0.7871125904861309  0.7826542775734486 -0.0001168025078036   T   T   T
  0.7128874095138691  0.7173457224265514  0.5001168025078037   T   T   T
  0.2820360577157338  0.9972841149289438  0.2104374924777906   T   T   T
  0.2153401084645659 -0.0000886650182863  0.7809859088775818   T   T   T
  0.2179639572842639  0.5027158850710562  0.2895625225222070   T   T   T
  0.2846599065354318  0.5000886650182864  0.7190140911224182   T   T   T
  0.7136062546178616 -0.0000670001116827  0.2791723125760436   T   T   T
  0.7795315732266799 -0.0001437198657267  0.7161950403985876   T   T   T
  0.7863937453821384  0.5000670001116827  0.2208277024239541   T   T   T
  0.7204684267733201  0.5001437198657268  0.7838049596014124   T   T   T
  0.9973716807370900  0.2133353340047205  0.2906927464472940   T   T   T
  0.9998655789511288  0.2827739135573550  0.7113547875434791   T   T   T
 -0.0000146488901741  0.7845937718457675  0.2869849236381484   T   T   T
 -0.0001684078116079  0.7172512493438449  0.7128139429233652   T   T   T
  0.5026283192629100  0.2866646809952770  0.2093072685527037   T   T   T
  0.5001344210488712  0.2172261014426428  0.7886452124565209   T   T   T
  0.5000146488901739  0.7154062281542325  0.2130150913618492   T   T   T
  0.5001684078116080  0.7827487506561551  0.7871860570766348   T   T   T
 
  0.00000000E+00  0.00000000E+00  0.00000000E+00
  0.00000000E+00  0.00000000E+00  0.00000000E+00
  0.00000000E+00  0.00000000E+00  0.00000000E+00
  0.00000000E+00  0.00000000E+00  0.00000000E+00
  0.00000000E+00  0.00000000E+00  0.00000000E+00
  0.00000000E+00  0.00000000E+00  0.00000000E+00
  0.00000000E+00  0.00000000E+00  0.00000000E+00
  0.00000000E+00  0.00000000E+00  0.00000000E+00
  0.00000000E+00  0.00000000E+00  0.00000000E+00
  0.00000000E+00  0.00000000E+00  0.00000000E+00
  0.00000000E+00  0.00000000E+00  0.00000000E+00
  0.00000000E+00  0.00000000E+00  0.00000000E+00
  0.00000000E+00  0.00000000E+00  0.00000000E+00
  0.00000000E+00  0.00000000E+00  0.00000000E+00
  0.00000000E+00  0.00000000E+00  0.00000000E+00
  0.00000000E+00  0.00000000E+00  0.00000000E+00
  0.00000000E+00  0.00000000E+00  0.00000000E+00
  0.00000000E+00  0.00000000E+00  0.00000000E+00
  0.00000000E+00  0.00000000E+00  0.00000000E+00
  0.00000000E+00  0.00000000E+00  0.00000000E+00
  0.00000000E+00  0.00000000E+00  0.00000000E+00
  0.00000000E+00  0.00000000E+00  0.00000000E+00
  0.00000000E+00  0.00000000E+00  0.00000000E+00
  0.00000000E+00  0.00000000E+00  0.00000000E+00
  0.00000000E+00  0.00000000E+00  0.00000000E+00
  0.00000000E+00  0.00000000E+00  0.00000000E+00
  0.00000000E+00  0.00000000E+00  0.00000000E+00
  0.00000000E+00  0.00000000E+00  0.00000000E+00
  0.00000000E+00  0.00000000E+00  0.00000000E+00
  0.00000000E+00  0.00000000E+00  0.00000000E+00
  0.00000000E+00  0.00000000E+00  0.00000000E+00
  0.00000000E+00  0.00000000E+00  0.00000000E+00
  0.00000000E+00  0.00000000E+00  0.00000000E+00
  0.00000000E+00  0.00000000E+00  0.00000000E+00
  0.00000000E+00  0.00000000E+00  0.00000000E+00
  0.00000000E+00  0.00000000E+00  0.00000000E+00
  0.00000000E+00  0.00000000E+00  0.00000000E+00
  0.00000000E+00  0.00000000E+00  0.00000000E+00
  0.00000000E+00  0.00000000E+00  0.00000000E+00
  0.00000000E+00  0.00000000E+00  0.00000000E+00
