MAPbI3-cubic                            
   1.00000000000000     
    12.6633274325824008    0.0000000000000000    0.0000000000000000
     0.0000000000000000   12.6642039886762987    0.0000000000000000
     0.0000000000000000    0.0000000000000000   12.6652639298688676
   Cs   Pb   Sn   I 
     8     4     4    24
Selective dynamics
Direct
 -0.0000000000000000  0.0000086576203377 -0.0000000000000000   T   T   T
 -0.0000000000000000  0.0328276975275705  0.5000000000000000   T   T   T
 -0.0000000000000000  0.5000543123246581 -0.0000000000000000   T   T   T
 -0.0000000000000000  0.5328078525377510  0.5000000000000000   T   T   T
  0.5000000000000000  0.9671921474622490 -0.0000000000000000   T   T   T
  0.5000000000000000  0.9999456876753419  0.5000000000000000   T   T   T
  0.5000000000000000  0.4671723024724294 -0.0000000000000000   T   T   T
  0.5000000000000000  0.4999913423796623  0.5000000000000000   T   T   T
  0.2500000000000000  0.2500000000000000  0.2500000000000000   T   T   T
  0.2500000000000000  0.7500000000000000  0.7500000000000000   T   T   T
  0.7500000000000000  0.2500000000000000  0.7500000000000000   T   T   T
  0.7500000000000000  0.7500000000000000  0.2500000000000000   T   T   T
  0.7500000000000000  0.7500000000000000  0.7500000000000000   T   T   T
  0.2500000000000000  0.2500000000000000  0.7500000000000000   T   T   T
  0.2500000000000000  0.7500000000000000  0.2500000000000000   T   T   T
  0.7500000000000000  0.2500000000000000  0.2500000000000000   T   T   T
  0.2196660585063567  0.2828215711581087  0.9974913373660140   T   T   T
  0.2803339564936409  0.2171784438418890  0.5025086626339860   T   T   T
  0.2880260706007782  0.7176010187052912  0.0024752340772801   T   T   T
  0.2119739443992195  0.7823989812947089  0.4975247659227199   T   T   T
  0.7803339564936410  0.2828215711581087  0.0025086626339860   T   T   T
  0.7196660435063590  0.2171784438418890  0.4974913373660140   T   T   T
  0.7119739293992219  0.7176010187052912  0.9975247659227199   T   T   T
  0.7880260706007781  0.7823989812947088  0.5024752340772801   T   T   T
  0.2202427654191601  0.9974528190524282  0.2195862853536579   T   T   T
  0.2196187645183250  0.0025452894561970  0.7797928778875070   T   T   T
  0.2797572495808377  0.5025471809475718  0.2804137296463398   T   T   T
  0.2803812504816727  0.4974547105438030  0.7202071221124930   T   T   T
  0.7803812504816726  0.0025452894561970  0.2202071371124906   T   T   T
  0.7797572495808376  0.9974528190524282  0.7804137296463399   T   T   T
  0.7196187495183274  0.4974547105438030  0.2797928778875071   T   T   T
  0.7202427504191624  0.5025471809475718  0.7195862703536601   T   T   T
  0.9975244780754569  0.2824290441874394  0.2880752231593319   T   T   T
  0.0024755219245432  0.2824290441874394  0.7119247768406681   T   T   T
  0.0025114494153031  0.7171488585784528  0.2196154744855285   T   T   T
  0.9974885505846969  0.7171488585784528  0.7803845405144690   T   T   T
  0.5024755219245431  0.2175709708125582  0.2119247918406658   T   T   T
  0.4975244780754567  0.2175709708125582  0.7880752231593319   T   T   T
  0.4974885505846969  0.7828511414215472  0.2803845405144691   T   T   T
  0.5025114494153031  0.7828511414215472  0.7196154594855310   T   T   T
 
  0.00000000E+00  0.00000000E+00  0.00000000E+00
  0.00000000E+00  0.00000000E+00  0.00000000E+00
  0.00000000E+00  0.00000000E+00  0.00000000E+00
  0.00000000E+00  0.00000000E+00  0.00000000E+00
  0.00000000E+00  0.00000000E+00  0.00000000E+00
  0.00000000E+00  0.00000000E+00  0.00000000E+00
  0.00000000E+00  0.00000000E+00  0.00000000E+00
  0.00000000E+00  0.00000000E+00  0.00000000E+00
  0.00000000E+00  0.00000000E+00  0.00000000E+00
  0.00000000E+00  0.00000000E+00  0.00000000E+00
  0.00000000E+00  0.00000000E+00  0.00000000E+00
  0.00000000E+00  0.00000000E+00  0.00000000E+00
  0.00000000E+00  0.00000000E+00  0.00000000E+00
  0.00000000E+00  0.00000000E+00  0.00000000E+00
  0.00000000E+00  0.00000000E+00  0.00000000E+00
  0.00000000E+00  0.00000000E+00  0.00000000E+00
  0.00000000E+00  0.00000000E+00  0.00000000E+00
  0.00000000E+00  0.00000000E+00  0.00000000E+00
  0.00000000E+00  0.00000000E+00  0.00000000E+00
  0.00000000E+00  0.00000000E+00  0.00000000E+00
  0.00000000E+00  0.00000000E+00  0.00000000E+00
  0.00000000E+00  0.00000000E+00  0.00000000E+00
  0.00000000E+00  0.00000000E+00  0.00000000E+00
  0.00000000E+00  0.00000000E+00  0.00000000E+00
  0.00000000E+00  0.00000000E+00  0.00000000E+00
  0.00000000E+00  0.00000000E+00  0.00000000E+00
  0.00000000E+00  0.00000000E+00  0.00000000E+00
  0.00000000E+00  0.00000000E+00  0.00000000E+00
  0.00000000E+00  0.00000000E+00  0.00000000E+00
  0.00000000E+00  0.00000000E+00  0.00000000E+00
  0.00000000E+00  0.00000000E+00  0.00000000E+00
  0.00000000E+00  0.00000000E+00  0.00000000E+00
  0.00000000E+00  0.00000000E+00  0.00000000E+00
  0.00000000E+00  0.00000000E+00  0.00000000E+00
  0.00000000E+00  0.00000000E+00  0.00000000E+00
  0.00000000E+00  0.00000000E+00  0.00000000E+00
  0.00000000E+00  0.00000000E+00  0.00000000E+00
  0.00000000E+00  0.00000000E+00  0.00000000E+00
  0.00000000E+00  0.00000000E+00  0.00000000E+00
  0.00000000E+00  0.00000000E+00  0.00000000E+00
