MAPbI3-cubic                            
   1.00000000000000     
    12.7254892455102393    0.0000000000000000    0.0000000000000000
     0.0000000000000000   12.7265538477108553    0.0000000000000000
     0.0000000000000000    0.0000000000000000   12.7273981535667620
   Cs   Pb   Sn   I 
     8     6     2    24
Selective dynamics
Direct
  0.9716482852222967 -0.0332760046640665  0.0010441395245110   T   T   T
  0.0134376518696294  0.0364660929632517  0.5001307292510691   T   T   T
  0.9651478411438087  0.4818845818163242  0.0026886415204999   T   T   T
  0.0350141694687780  0.5253007966598988  0.5006104892733338   T   T   T
  0.4643608195163527  0.9750479963073531 -0.0015690816606189   T   T   T
  0.5345546862351035  0.0191784868428637  0.4980703515237425   T   T   T
  0.4871812559678128  0.4613222493694430 -0.0006611867633302   T   T   T
  0.5275795923926436  0.5339638661959988  0.4998267633457260   T   T   T
  0.2501544583007307  0.2499358810430444  0.2500633459888650   T   T   T
  0.2547764135046963  0.2472794042127674  0.7516405786102553   T   T   T
  0.2498817852883351  0.7498235745523413  0.2499822414432246   T   T   T
  0.2504989380940948  0.7485694468704092  0.7501598528441844   T   T   T
  0.7502866260424798  0.2499215358171435  0.2498613114921548   T   T   T
  0.7501054323652120  0.7496202203411269  0.7502465521015380   T   T   T
  0.7557857665029585  0.2508976411654678  0.7482383281563787   T   T   T
  0.7495745859207807  0.7499432438838280  0.2501716766501224   T   T   T
  0.2200216272351846  0.3002486284653214  0.0003281921352081   T   T   T
  0.2785341626872155  0.1994063506265497  0.5004760645404139   T   T   T
  0.2949084322988565  0.7106463401292736 -0.0000432365240550   T   T   T
  0.2061586589625701  0.7882438680114182  0.4998688749007200   T   T   T
  0.7883469609251251  0.2266613885727884  0.9970090268078839   T   T   T
  0.7111755225925626  0.2744221688320815  0.5016372137119463   T   T   T
  0.7169180407747309  0.7823151225760338  0.0024723137497235   T   T   T
  0.7831618505894413  0.7185268613528598  0.4974765940511732   T   T   T
  0.2090787272475231 -0.0002050582748447  0.2046285850679696   T   T   T
  0.2070935098082875 -0.0004907539707520  0.7955211536994594   T   T   T
  0.2911400068522330  0.4998639742578606  0.2953251228063724   T   T   T
  0.2906616695898583  0.4994187545166104  0.7042806914103046   T   T   T
  0.7908484356953993  0.9979646811677494  0.2796478515518454   T   T   T
  0.7910648972349037  0.0037749069896151  0.7205021940598226   T   T   T
  0.7092636958218455  0.5027256847961356  0.2203913399977137   T   T   T
  0.7090845254296949  0.4989968099268052  0.7786753568589658   T   T   T
 -0.0001760048135392  0.2930748855988713  0.2883586428995487   T   T   T
  0.9932321622392299  0.2920024617977862  0.7135769788841170   T   T   T
  0.9975934012319956  0.7108879937576891  0.2140548109646396   T   T   T
 -0.0000401387240276  0.7075779144646352  0.7886448246118961   T   T   T
  0.5002499652353574  0.2068002256377183  0.2117497890290716   T   T   T
  0.4984985809511502  0.2091257085697074  0.7869906077837061   T   T   T
  0.5029344903249572  0.7894203166854120  0.2863926895423067   T   T   T
  0.5002585719737329  0.7927118121354552  0.7115296441575836   T   T   T
 
  0.00000000E+00  0.00000000E+00  0.00000000E+00
  0.00000000E+00  0.00000000E+00  0.00000000E+00
  0.00000000E+00  0.00000000E+00  0.00000000E+00
  0.00000000E+00  0.00000000E+00  0.00000000E+00
  0.00000000E+00  0.00000000E+00  0.00000000E+00
  0.00000000E+00  0.00000000E+00  0.00000000E+00
  0.00000000E+00  0.00000000E+00  0.00000000E+00
  0.00000000E+00  0.00000000E+00  0.00000000E+00
  0.00000000E+00  0.00000000E+00  0.00000000E+00
  0.00000000E+00  0.00000000E+00  0.00000000E+00
  0.00000000E+00  0.00000000E+00  0.00000000E+00
  0.00000000E+00  0.00000000E+00  0.00000000E+00
  0.00000000E+00  0.00000000E+00  0.00000000E+00
  0.00000000E+00  0.00000000E+00  0.00000000E+00
  0.00000000E+00  0.00000000E+00  0.00000000E+00
  0.00000000E+00  0.00000000E+00  0.00000000E+00
  0.00000000E+00  0.00000000E+00  0.00000000E+00
  0.00000000E+00  0.00000000E+00  0.00000000E+00
  0.00000000E+00  0.00000000E+00  0.00000000E+00
  0.00000000E+00  0.00000000E+00  0.00000000E+00
  0.00000000E+00  0.00000000E+00  0.00000000E+00
  0.00000000E+00  0.00000000E+00  0.00000000E+00
  0.00000000E+00  0.00000000E+00  0.00000000E+00
  0.00000000E+00  0.00000000E+00  0.00000000E+00
  0.00000000E+00  0.00000000E+00  0.00000000E+00
  0.00000000E+00  0.00000000E+00  0.00000000E+00
  0.00000000E+00  0.00000000E+00  0.00000000E+00
  0.00000000E+00  0.00000000E+00  0.00000000E+00
  0.00000000E+00  0.00000000E+00  0.00000000E+00
  0.00000000E+00  0.00000000E+00  0.00000000E+00
  0.00000000E+00  0.00000000E+00  0.00000000E+00
  0.00000000E+00  0.00000000E+00  0.00000000E+00
  0.00000000E+00  0.00000000E+00  0.00000000E+00
  0.00000000E+00  0.00000000E+00  0.00000000E+00
  0.00000000E+00  0.00000000E+00  0.00000000E+00
  0.00000000E+00  0.00000000E+00  0.00000000E+00
  0.00000000E+00  0.00000000E+00  0.00000000E+00
  0.00000000E+00  0.00000000E+00  0.00000000E+00
  0.00000000E+00  0.00000000E+00  0.00000000E+00
  0.00000000E+00  0.00000000E+00  0.00000000E+00
