MAPbI3-cubic                            
   1.00000000000000     
    12.6938632505771842    0.0000000000000000    0.0000000000000000
     0.0000000000000000   12.6963707593668911    0.0000000000000000
     0.0000000000000000    0.0000000000000000   12.6966896281480430
   Cs   Pb   Sn   I 
     8     5     3    24
Selective dynamics
Direct
  0.9718876341970986  0.9676299120265113  0.9992242651585023   T   T   T
  0.0092566687936567  0.0373237048911473  0.5019971169208367   T   T   T
  0.9689952145544913  0.4875588803596634  0.9982922158861207   T   T   T
  0.0328664845475419  0.5281890792809505  0.5007416405842964   T   T   T
  0.4671335154524581  0.9718109207190495  0.9992583594157036   T   T   T
  0.5310047854455087  0.0124411196403366  0.5017077841138793   T   T   T
  0.4907433312063433  0.4626762951088527  0.9980028830791633   T   T   T
  0.5281123658029014  0.5323700879734887  0.5007757348414977   T   T   T
  0.2500000000000000  0.2500000000000000  0.2500000000000000   T   T   T
  0.2500000000000000  0.2500000000000000  0.7500000000000000   T   T   T
  0.2500000000000000  0.7500000000000000  0.2500000000000000   T   T   T
  0.2500000000000000  0.7500000000000000  0.7500000000000000   T   T   T
  0.7500000000000000  0.2500000000000000  0.2500000000000000   T   T   T
  0.7500000000000000  0.2500000000000000  0.7500000000000000   T   T   T
  0.7500000000000000  0.7500000000000000  0.2500000000000000   T   T   T
  0.7500000000000000  0.7500000000000000  0.7500000000000000   T   T   T
  0.2206285663969031  0.3031876433764006 -0.0000769275929955   T   T   T
  0.2793714486030946  0.1968123716235971  0.5000769275929955   T   T   T
  0.2894058219186617  0.7064043249469730  0.9999319742697310   T   T   T
  0.2105941930813361  0.7935956750530270  0.5000680257302690   T   T   T
  0.7912985008106407  0.2311459527067950  0.9972900521728401   T   T   T
  0.7087014991893593  0.2688540622932027  0.5027099478271599   T   T   T
  0.7218027800559491  0.7733789409431338  0.9999073271204073   T   T   T
  0.7781972199440509  0.7266210590568662  0.5000926728795927   T   T   T
  0.2082090326396894  0.9999001134510753  0.2020611755276183   T   T   T
  0.2113492161662157 -0.0000807532688156  0.7976125581502111   T   T   T
  0.2917909823603084  0.5000998865489247  0.2979388394723794   T   T   T
  0.2886507988337820  0.5000807532688155  0.7023874418497889   T   T   T
  0.7924922099946399  0.9973697636128867  0.2743342973075701   T   T   T
  0.7861073965376332  0.9999546400641885  0.7270254802156838   T   T   T
  0.7075077900053601  0.5026302363871133  0.2256657176924276   T   T   T
  0.7138926034623668  0.5000453599358115  0.7729745197843162   T   T   T
  0.9996381679868699  0.2935505646103028  0.2910492508829936   T   T   T
  0.9974244280101374  0.2895989297435138  0.7111432441411145   T   T   T
  0.9973325641648305  0.7088071860776077  0.2188947739072860   T   T   T
  0.9972174840054004  0.7120043364549857  0.7812980632099350   T   T   T
  0.5003618320131301  0.2064494503896949  0.2089507641170042   T   T   T
  0.5025755719898626  0.2104010852564839  0.7888567558588855   T   T   T
  0.5026674358351695  0.7911928139223923  0.2811052410927117   T   T   T
  0.5027825159945996  0.7879956635450143  0.7187019367900650   T   T   T
 
  0.00000000E+00  0.00000000E+00  0.00000000E+00
  0.00000000E+00  0.00000000E+00  0.00000000E+00
  0.00000000E+00  0.00000000E+00  0.00000000E+00
  0.00000000E+00  0.00000000E+00  0.00000000E+00
  0.00000000E+00  0.00000000E+00  0.00000000E+00
  0.00000000E+00  0.00000000E+00  0.00000000E+00
  0.00000000E+00  0.00000000E+00  0.00000000E+00
  0.00000000E+00  0.00000000E+00  0.00000000E+00
  0.00000000E+00  0.00000000E+00  0.00000000E+00
  0.00000000E+00  0.00000000E+00  0.00000000E+00
  0.00000000E+00  0.00000000E+00  0.00000000E+00
  0.00000000E+00  0.00000000E+00  0.00000000E+00
  0.00000000E+00  0.00000000E+00  0.00000000E+00
  0.00000000E+00  0.00000000E+00  0.00000000E+00
  0.00000000E+00  0.00000000E+00  0.00000000E+00
  0.00000000E+00  0.00000000E+00  0.00000000E+00
  0.00000000E+00  0.00000000E+00  0.00000000E+00
  0.00000000E+00  0.00000000E+00  0.00000000E+00
  0.00000000E+00  0.00000000E+00  0.00000000E+00
  0.00000000E+00  0.00000000E+00  0.00000000E+00
  0.00000000E+00  0.00000000E+00  0.00000000E+00
  0.00000000E+00  0.00000000E+00  0.00000000E+00
  0.00000000E+00  0.00000000E+00  0.00000000E+00
  0.00000000E+00  0.00000000E+00  0.00000000E+00
  0.00000000E+00  0.00000000E+00  0.00000000E+00
  0.00000000E+00  0.00000000E+00  0.00000000E+00
  0.00000000E+00  0.00000000E+00  0.00000000E+00
  0.00000000E+00  0.00000000E+00  0.00000000E+00
  0.00000000E+00  0.00000000E+00  0.00000000E+00
  0.00000000E+00  0.00000000E+00  0.00000000E+00
  0.00000000E+00  0.00000000E+00  0.00000000E+00
  0.00000000E+00  0.00000000E+00  0.00000000E+00
  0.00000000E+00  0.00000000E+00  0.00000000E+00
  0.00000000E+00  0.00000000E+00  0.00000000E+00
  0.00000000E+00  0.00000000E+00  0.00000000E+00
  0.00000000E+00  0.00000000E+00  0.00000000E+00
  0.00000000E+00  0.00000000E+00  0.00000000E+00
  0.00000000E+00  0.00000000E+00  0.00000000E+00
  0.00000000E+00  0.00000000E+00  0.00000000E+00
  0.00000000E+00  0.00000000E+00  0.00000000E+00
