MAPbI3-cubic                            
   1.00000000000000     
    12.6668917163625814    0.0000000000000000    0.0000000000000000
     0.0000000000000000   12.6663491202548339    0.0000000000000000
     0.0000000000000000    0.0000000000000000   12.6658893601496327
   Cs   Pb   Sn   I 
     8     4     4    24
Selective dynamics
Direct
  0.9755351390535336  0.9688903507873626  0.9972920347975468   T   T   T
  0.0173438286331486  0.0352437776736245  0.5020773187369318   T   T   T
  0.9637721929824530  0.4897901141761081  0.9969721329298200   T   T   T
  0.0329200466574926  0.5286131243274542  0.5024274766581375   T   T   T
  0.4670799533425075  0.9713868756725458  0.9975725233418625   T   T   T
  0.5362278070175470  0.0102098858238919  0.5030278670701800   T   T   T
  0.4826561713668513  0.4647562223263755 -0.0020773187369315   T   T   T
  0.5244648609464664  0.5311096492126374  0.5027079652024532   T   T   T
  0.2500000000000000  0.2500000000000000  0.2500000000000000   T   T   T
  0.2500000000000000  0.2500000000000000  0.7500000000000000   T   T   T
  0.2500000000000000  0.7500000000000000  0.2500000000000000   T   T   T
  0.7500000000000000  0.2500000000000000  0.2500000000000000   T   T   T
  0.7500000000000000  0.2500000000000000  0.7500000000000000   T   T   T
  0.7500000000000000  0.7500000000000000  0.2500000000000000   T   T   T
  0.7500000000000000  0.7500000000000000  0.7500000000000000   T   T   T
  0.2500000000000000  0.7500000000000000  0.7500000000000000   T   T   T
  0.2144577146063781  0.2995074456407115 -0.0001692337304285   T   T   T
  0.2855423003936196  0.2004925693592861  0.5001692337304281   T   T   T
  0.2830692252260341  0.7119128477513675  0.9972521854236478   T   T   T
  0.2169307897739636  0.7880871522486325  0.5027478145763522   T   T   T
  0.7941173919236032  0.2285451547547735  0.9973454250685289   T   T   T
  0.7058826080763968  0.2714548602452240  0.5026545749314711   T   T   T
  0.7256509447651792  0.7778627791162344 -0.0002916294600083   T   T   T
  0.7743490552348208  0.7221372208837656  0.5002916294600082   T   T   T
  0.2067003062707901 -0.0002143236008992  0.2067706006392652   T   T   T
  0.2127844628922965  0.9974237508074728  0.7909982359617589   T   T   T
  0.2932997087292075  0.5002143236008989  0.2932294143607325   T   T   T
  0.2872155521077013  0.5025762491925272  0.7090017640382411   T   T   T
  0.7937063130258782  0.9973769607459728  0.2790628555283401   T   T   T
  0.7861148285521973 -0.0001802116311337  0.7233007258233152   T   T   T
  0.7062936869741218  0.5026230392540272  0.2209371594716575   T   T   T
  0.7138851714478027  0.5001802116311338  0.7766992741766848   T   T   T
 -0.0001959816263685  0.2933997889172621  0.2944237477218313   T   T   T
  0.9973880635094793  0.2876031738847012  0.7090735032335718   T   T   T
  0.9973233161123832  0.7068257414118032  0.2217650476465243   T   T   T
 -0.0002226557461268  0.7146398901824046  0.7770826079116512   T   T   T
  0.5001959816263684  0.2066002260827358  0.2055762672781665   T   T   T
  0.5026119364905207  0.2123968411152962  0.7909264967664282   T   T   T
  0.5026766838876168  0.7931742585881968  0.2782349673534734   T   T   T
  0.5002226557461265  0.7853601098175954  0.7229173920883488   T   T   T
 
  0.00000000E+00  0.00000000E+00  0.00000000E+00
  0.00000000E+00  0.00000000E+00  0.00000000E+00
  0.00000000E+00  0.00000000E+00  0.00000000E+00
  0.00000000E+00  0.00000000E+00  0.00000000E+00
  0.00000000E+00  0.00000000E+00  0.00000000E+00
  0.00000000E+00  0.00000000E+00  0.00000000E+00
  0.00000000E+00  0.00000000E+00  0.00000000E+00
  0.00000000E+00  0.00000000E+00  0.00000000E+00
  0.00000000E+00  0.00000000E+00  0.00000000E+00
  0.00000000E+00  0.00000000E+00  0.00000000E+00
  0.00000000E+00  0.00000000E+00  0.00000000E+00
  0.00000000E+00  0.00000000E+00  0.00000000E+00
  0.00000000E+00  0.00000000E+00  0.00000000E+00
  0.00000000E+00  0.00000000E+00  0.00000000E+00
  0.00000000E+00  0.00000000E+00  0.00000000E+00
  0.00000000E+00  0.00000000E+00  0.00000000E+00
  0.00000000E+00  0.00000000E+00  0.00000000E+00
  0.00000000E+00  0.00000000E+00  0.00000000E+00
  0.00000000E+00  0.00000000E+00  0.00000000E+00
  0.00000000E+00  0.00000000E+00  0.00000000E+00
  0.00000000E+00  0.00000000E+00  0.00000000E+00
  0.00000000E+00  0.00000000E+00  0.00000000E+00
  0.00000000E+00  0.00000000E+00  0.00000000E+00
  0.00000000E+00  0.00000000E+00  0.00000000E+00
  0.00000000E+00  0.00000000E+00  0.00000000E+00
  0.00000000E+00  0.00000000E+00  0.00000000E+00
  0.00000000E+00  0.00000000E+00  0.00000000E+00
  0.00000000E+00  0.00000000E+00  0.00000000E+00
  0.00000000E+00  0.00000000E+00  0.00000000E+00
  0.00000000E+00  0.00000000E+00  0.00000000E+00
  0.00000000E+00  0.00000000E+00  0.00000000E+00
  0.00000000E+00  0.00000000E+00  0.00000000E+00
  0.00000000E+00  0.00000000E+00  0.00000000E+00
  0.00000000E+00  0.00000000E+00  0.00000000E+00
  0.00000000E+00  0.00000000E+00  0.00000000E+00
  0.00000000E+00  0.00000000E+00  0.00000000E+00
  0.00000000E+00  0.00000000E+00  0.00000000E+00
  0.00000000E+00  0.00000000E+00  0.00000000E+00
  0.00000000E+00  0.00000000E+00  0.00000000E+00
  0.00000000E+00  0.00000000E+00  0.00000000E+00
