MAPbI3-cubic                            
   1.00000000000000     
    12.6432276313736889    0.0000000000000000    0.0000000000000000
     0.0000000000000000   12.6441926012833097    0.0000000000000000
     0.0000000000000000    0.0000000000000000   12.6477555941466520
   Cs   Pb   Sn   I 
     8     3     5    24
Selective dynamics
Direct
  0.9874805110773893  0.9991385138782395  0.9891647950557974   T   T   T
  0.0026073830746337  0.0269385586192759  0.4873549932125104   T   T   T
  0.9839530215996746  0.5044625000995308  0.9890783963834328   T   T   T
  0.0142185619805350  0.5305073453935586  0.5030354535585485   T   T   T
  0.4857814380194649  0.9694926546064414  0.9969645464414515   T   T   T
  0.5160469784003254  0.9955374999004692  0.5109216036165672   T   T   T
  0.4973926169253666  0.4730614413807239  0.0126450067874894   T   T   T
  0.5125194889226107  0.5008614861217605  0.5108352049442026   T   T   T
  0.2500000000000000  0.2500000000000000  0.2500000000000000   T   T   T
  0.2500000000000000  0.2500000000000000  0.7500000000000000   T   T   T
  0.7500000000000000  0.7500000000000000  0.2500000000000000   T   T   T
  0.7500000000000000  0.7500000000000000  0.7500000000000000   T   T   T
  0.2500000000000000  0.7500000000000000  0.2500000000000000   T   T   T
  0.2500000000000000  0.7500000000000000  0.7500000000000000   T   T   T
  0.7500000000000000  0.2500000000000000  0.2500000000000000   T   T   T
  0.7500000000000000  0.2500000000000000  0.7500000000000000   T   T   T
  0.2134125857051160  0.2953677686395861 -0.0000982115479301   T   T   T
  0.2865874292948817  0.2046322463604117  0.5000982115479300   T   T   T
  0.2809032240340875  0.7123213970525621 -0.0001875446672072   T   T   T
  0.2190967909659100  0.7876786029474379  0.5001875446672072   T   T   T
  0.7892287661809704  0.2617957051980673 -0.0001291282039310   T   T   T
  0.7107712338190296  0.2382043098019304  0.5001291282039310   T   T   T
  0.7164526372158643  0.7355977529309562  0.9972706897130974   T   T   T
  0.7835473627841357  0.7644022470690438  0.5027293102869026   T   T   T
  0.2099273706488441  0.9974523486179374  0.2112732368781114   T   T   T
  0.2351619959845415  0.9970984615085685  0.7925262800579457   T   T   T
  0.2900726443511535  0.5025476513820626  0.2887267781218862   T   T   T
  0.2648380190154562  0.5029015384914315  0.7074737199420543   T   T   T
  0.7933818671551491  0.0025603721820339  0.2404132012185026   T   T   T
  0.7631094645549894 -0.0000098048991269  0.7602123095631531   T   T   T
  0.7066181328448509  0.4974396278179663  0.2595868137814951   T   T   T
  0.7368905354450106  0.5000098048991267  0.7397876904368469   T   T   T
  0.9974986486048559  0.2886331269689833  0.2930627458539544   T   T   T
  0.9973242581896452  0.2660574853022255  0.7065555723293174   T   T   T
  0.0023769952029437  0.7069513878489848  0.2250079274864559   T   T   T
  0.0000022134958682  0.7354218425680015  0.7788699747774258   T   T   T
  0.5025013513951441  0.2113668880310144  0.2069372691460433   T   T   T
  0.5026757418103548  0.2339425296977720  0.7934444276706826   T   T   T
  0.4976230047970562  0.7930486121510152  0.2749920875135418   T   T   T
  0.4999977865041320  0.7645781574319985  0.7211300252225742   T   T   T
 
  0.00000000E+00  0.00000000E+00  0.00000000E+00
  0.00000000E+00  0.00000000E+00  0.00000000E+00
  0.00000000E+00  0.00000000E+00  0.00000000E+00
  0.00000000E+00  0.00000000E+00  0.00000000E+00
  0.00000000E+00  0.00000000E+00  0.00000000E+00
  0.00000000E+00  0.00000000E+00  0.00000000E+00
  0.00000000E+00  0.00000000E+00  0.00000000E+00
  0.00000000E+00  0.00000000E+00  0.00000000E+00
  0.00000000E+00  0.00000000E+00  0.00000000E+00
  0.00000000E+00  0.00000000E+00  0.00000000E+00
  0.00000000E+00  0.00000000E+00  0.00000000E+00
  0.00000000E+00  0.00000000E+00  0.00000000E+00
  0.00000000E+00  0.00000000E+00  0.00000000E+00
  0.00000000E+00  0.00000000E+00  0.00000000E+00
  0.00000000E+00  0.00000000E+00  0.00000000E+00
  0.00000000E+00  0.00000000E+00  0.00000000E+00
  0.00000000E+00  0.00000000E+00  0.00000000E+00
  0.00000000E+00  0.00000000E+00  0.00000000E+00
  0.00000000E+00  0.00000000E+00  0.00000000E+00
  0.00000000E+00  0.00000000E+00  0.00000000E+00
  0.00000000E+00  0.00000000E+00  0.00000000E+00
  0.00000000E+00  0.00000000E+00  0.00000000E+00
  0.00000000E+00  0.00000000E+00  0.00000000E+00
  0.00000000E+00  0.00000000E+00  0.00000000E+00
  0.00000000E+00  0.00000000E+00  0.00000000E+00
  0.00000000E+00  0.00000000E+00  0.00000000E+00
  0.00000000E+00  0.00000000E+00  0.00000000E+00
  0.00000000E+00  0.00000000E+00  0.00000000E+00
  0.00000000E+00  0.00000000E+00  0.00000000E+00
  0.00000000E+00  0.00000000E+00  0.00000000E+00
  0.00000000E+00  0.00000000E+00  0.00000000E+00
  0.00000000E+00  0.00000000E+00  0.00000000E+00
  0.00000000E+00  0.00000000E+00  0.00000000E+00
  0.00000000E+00  0.00000000E+00  0.00000000E+00
  0.00000000E+00  0.00000000E+00  0.00000000E+00
  0.00000000E+00  0.00000000E+00  0.00000000E+00
  0.00000000E+00  0.00000000E+00  0.00000000E+00
  0.00000000E+00  0.00000000E+00  0.00000000E+00
  0.00000000E+00  0.00000000E+00  0.00000000E+00
  0.00000000E+00  0.00000000E+00  0.00000000E+00
