MAPbI3-cubic                            
   1.00000000000000     
    12.6669895111317885    0.0000000000000000    0.0000000000000000
     0.0000000000000000   12.6703174651365540    0.0000000000000000
     0.0000000000000000    0.0000000000000000   12.6692153003061758
   Cs   Pb   Sn   I 
     8     4     4    24
Selective dynamics
Direct
  0.9688953694968666  0.9662453954922456 -0.0000000000000000   T   T   T
  0.0045392703879130  0.0370488425450943  0.5000000000000000   T   T   T
  0.9703407655970425  0.4833347019584033 -0.0000000000000000   T   T   T
  0.0312253187126797  0.5255522886509623  0.5000000000000000   T   T   T
  0.4687746812873202  0.9744477113490377 -0.0000000000000000   T   T   T
  0.5296592344029575  0.0166652980415967  0.5000000000000000   T   T   T
  0.4954607296120870  0.4629511574549057 -0.0000000000000000   T   T   T
  0.5311046305031334  0.5337546045077544  0.5000000000000000   T   T   T
  0.2500000000000000  0.2500000000000000  0.2500000000000000   T   T   T
  0.2500000000000000  0.2500000000000000  0.7500000000000000   T   T   T
  0.2500000000000000  0.7500000000000000  0.2500000000000000   T   T   T
  0.2500000000000000  0.7500000000000000  0.7500000000000000   T   T   T
  0.7500000000000000  0.2500000000000000  0.2500000000000000   T   T   T
  0.7500000000000000  0.2500000000000000  0.7500000000000000   T   T   T
  0.7500000000000000  0.7500000000000000  0.2500000000000000   T   T   T
  0.7500000000000000  0.7500000000000000  0.7500000000000000   T   T   T
  0.2258585179999260  0.3045959404404124 -0.0000000000000000   T   T   T
  0.2741414970000717  0.1954040745595853  0.5000000000000000   T   T   T
  0.2945627093851823  0.7067111157522421 -0.0000000000000000   T   T   T
  0.2054373056148154  0.7932888842477579  0.5000000000000000   T   T   T
  0.7846548553513335  0.2311708453591363 -0.0000000000000000   T   T   T
  0.7153451446486665  0.2688291696408614  0.5000000000000000   T   T   T
  0.7175967035158236  0.7723660898343571 -0.0000000000000000   T   T   T
  0.7824032964841764  0.7276339101656429  0.5000000000000000   T   T   T
  0.2105680772908853  0.0000121177980406  0.1999366185906160   T   T   T
  0.2105680772908853  0.0000121177980406  0.8000633964093817   T   T   T
  0.2894319377091125  0.4999878822019594  0.3000633964093817   T   T   T
  0.2894319377091125  0.4999878822019594  0.6999366035906183   T   T   T
  0.7864891526718482  0.0001720921905903  0.2726550454253548   T   T   T
  0.7864891526718482  0.0001720921905903  0.7273449695746429   T   T   T
  0.7135108473281518  0.4998279078094096  0.2273449695746428   T   T   T
  0.7135108473281518  0.4998279078094096  0.7726550304253571   T   T   T
  0.9972597309370509  0.2904066598621879  0.2847833074667731   T   T   T
  0.9972597309370509  0.2904066598621879  0.7152166925332268   T   T   T
  0.9971843393576564  0.7108865114384588  0.2149096770465826   T   T   T
  0.9971843393576564  0.7108865114384588  0.7850903379534151   T   T   T
  0.5027402690629491  0.2095933551378097  0.2152167075332246   T   T   T
  0.5027402690629491  0.2095933551378097  0.7847833074667732   T   T   T
  0.5028156606423436  0.7891134885615412  0.2850903379534152   T   T   T
  0.5028156606423436  0.7891134885615412  0.7149096620465849   T   T   T
 
  0.00000000E+00  0.00000000E+00  0.00000000E+00
  0.00000000E+00  0.00000000E+00  0.00000000E+00
  0.00000000E+00  0.00000000E+00  0.00000000E+00
  0.00000000E+00  0.00000000E+00  0.00000000E+00
  0.00000000E+00  0.00000000E+00  0.00000000E+00
  0.00000000E+00  0.00000000E+00  0.00000000E+00
  0.00000000E+00  0.00000000E+00  0.00000000E+00
  0.00000000E+00  0.00000000E+00  0.00000000E+00
  0.00000000E+00  0.00000000E+00  0.00000000E+00
  0.00000000E+00  0.00000000E+00  0.00000000E+00
  0.00000000E+00  0.00000000E+00  0.00000000E+00
  0.00000000E+00  0.00000000E+00  0.00000000E+00
  0.00000000E+00  0.00000000E+00  0.00000000E+00
  0.00000000E+00  0.00000000E+00  0.00000000E+00
  0.00000000E+00  0.00000000E+00  0.00000000E+00
  0.00000000E+00  0.00000000E+00  0.00000000E+00
  0.00000000E+00  0.00000000E+00  0.00000000E+00
  0.00000000E+00  0.00000000E+00  0.00000000E+00
  0.00000000E+00  0.00000000E+00  0.00000000E+00
  0.00000000E+00  0.00000000E+00  0.00000000E+00
  0.00000000E+00  0.00000000E+00  0.00000000E+00
  0.00000000E+00  0.00000000E+00  0.00000000E+00
  0.00000000E+00  0.00000000E+00  0.00000000E+00
  0.00000000E+00  0.00000000E+00  0.00000000E+00
  0.00000000E+00  0.00000000E+00  0.00000000E+00
  0.00000000E+00  0.00000000E+00  0.00000000E+00
  0.00000000E+00  0.00000000E+00  0.00000000E+00
  0.00000000E+00  0.00000000E+00  0.00000000E+00
  0.00000000E+00  0.00000000E+00  0.00000000E+00
  0.00000000E+00  0.00000000E+00  0.00000000E+00
  0.00000000E+00  0.00000000E+00  0.00000000E+00
  0.00000000E+00  0.00000000E+00  0.00000000E+00
  0.00000000E+00  0.00000000E+00  0.00000000E+00
  0.00000000E+00  0.00000000E+00  0.00000000E+00
  0.00000000E+00  0.00000000E+00  0.00000000E+00
  0.00000000E+00  0.00000000E+00  0.00000000E+00
  0.00000000E+00  0.00000000E+00  0.00000000E+00
  0.00000000E+00  0.00000000E+00  0.00000000E+00
  0.00000000E+00  0.00000000E+00  0.00000000E+00
  0.00000000E+00  0.00000000E+00  0.00000000E+00
