MAPbI3-cubic                            
   1.00000000000000     
    12.6118942286929201    0.0000000000000000    0.0000000000000000
     0.0000000000000000   12.6128929833012755    0.0000000000000000
     0.0000000000000000    0.0000000000000000   12.6136989532600516
   Cs   Pb   Sn   I 
     8     2     6    24
Selective dynamics
Direct
  0.9731565840379011 -0.0309156240419946  0.0000789886726373   T   T   T
  0.0117967637634520  0.0339669424575081  0.5012090103620882   T   T   T
  0.9684423262480630  0.4826873955979413  0.0024905306554881   T   T   T
  0.0323239230322735  0.5234319462065877  0.5022039774288654   T   T   T
  0.4676760769677265  0.9765680537934123 -0.0022039774288651   T   T   T
  0.5315576737519370  0.0173126044020588  0.4975094693445118   T   T   T
  0.4882032362365482  0.4660330575424917  0.9987909896379118   T   T   T
  0.5268434159620989  0.5309156240419944  0.4999210113273627   T   T   T
  0.2500000000000000  0.2500000000000000  0.2500000000000000   T   T   T
  0.2500000000000000  0.7500000000000000  0.7500000000000000   T   T   T
  0.2500000000000000  0.2500000000000000  0.7500000000000000   T   T   T
  0.2500000000000000  0.7500000000000000  0.2500000000000000   T   T   T
  0.7500000000000000  0.2500000000000000  0.2500000000000000   T   T   T
  0.7500000000000000  0.2500000000000000  0.7500000000000000   T   T   T
  0.7500000000000000  0.7500000000000000  0.2500000000000000   T   T   T
  0.7500000000000000  0.7500000000000000  0.7500000000000000   T   T   T
  0.2230208535654351  0.2951376960947570  0.9974409372061268   T   T   T
  0.2769791614345626  0.2048623189052403  0.5025590627938732   T   T   T
  0.2890733711711827  0.7141657873450917  0.0024342253474312   T   T   T
  0.2109266438288149  0.7858342126549083  0.4975657746525687   T   T   T
  0.7819705481636757  0.2287710198814047 -0.0001292939364485   T   T   T
  0.7180294518363243  0.2712289951185929  0.5001292939364486   T   T   T
  0.7200831885711066  0.7759491708507688 -0.0000376407221645   T   T   T
  0.7799168114288934  0.7240508291492312  0.5000376407221645   T   T   T
  0.2109066538298678  0.9975416491107818  0.2082730311053524   T   T   T
  0.2103355728145049  0.0024349505583883  0.7917514588182407   T   T   T
  0.2890933611701300  0.5024583508892182  0.2917269838946452   T   T   T
  0.2896644421854929  0.4975650494416116  0.7082485411817593   T   T   T
  0.7885115789085003 -0.0000718879857211  0.2747411228713547   T   T   T
  0.7878315687206868 -0.0001015398569639  0.7258013527109671   T   T   T
  0.7114884210914997  0.5000718879857212  0.2252588921286434   T   T   T
  0.7121684312793132  0.5001015398569638  0.7741986472890329   T   T   T
  0.9973909750203295  0.2913851116328203  0.2842058976915746   T   T   T
 -0.0002133788872496  0.2877574893944115  0.7185923319420785   T   T   T
 -0.0003871703299968  0.7128418166659550  0.2180852725089859   T   T   T
  0.9974229061800144  0.7098013507597762  0.7852751564415293   T   T   T
  0.5026090249796705  0.2086149033671778  0.2157941173084231   T   T   T
  0.5002133788872498  0.2122425256055865  0.7814076680579215   T   T   T
  0.5003871703299966  0.7871581833340450  0.2819147424910119   T   T   T
  0.5025770938199856  0.7901986492402238  0.7147248435584707   T   T   T
 
  0.00000000E+00  0.00000000E+00  0.00000000E+00
  0.00000000E+00  0.00000000E+00  0.00000000E+00
  0.00000000E+00  0.00000000E+00  0.00000000E+00
  0.00000000E+00  0.00000000E+00  0.00000000E+00
  0.00000000E+00  0.00000000E+00  0.00000000E+00
  0.00000000E+00  0.00000000E+00  0.00000000E+00
  0.00000000E+00  0.00000000E+00  0.00000000E+00
  0.00000000E+00  0.00000000E+00  0.00000000E+00
  0.00000000E+00  0.00000000E+00  0.00000000E+00
  0.00000000E+00  0.00000000E+00  0.00000000E+00
  0.00000000E+00  0.00000000E+00  0.00000000E+00
  0.00000000E+00  0.00000000E+00  0.00000000E+00
  0.00000000E+00  0.00000000E+00  0.00000000E+00
  0.00000000E+00  0.00000000E+00  0.00000000E+00
  0.00000000E+00  0.00000000E+00  0.00000000E+00
  0.00000000E+00  0.00000000E+00  0.00000000E+00
  0.00000000E+00  0.00000000E+00  0.00000000E+00
  0.00000000E+00  0.00000000E+00  0.00000000E+00
  0.00000000E+00  0.00000000E+00  0.00000000E+00
  0.00000000E+00  0.00000000E+00  0.00000000E+00
  0.00000000E+00  0.00000000E+00  0.00000000E+00
  0.00000000E+00  0.00000000E+00  0.00000000E+00
  0.00000000E+00  0.00000000E+00  0.00000000E+00
  0.00000000E+00  0.00000000E+00  0.00000000E+00
  0.00000000E+00  0.00000000E+00  0.00000000E+00
  0.00000000E+00  0.00000000E+00  0.00000000E+00
  0.00000000E+00  0.00000000E+00  0.00000000E+00
  0.00000000E+00  0.00000000E+00  0.00000000E+00
  0.00000000E+00  0.00000000E+00  0.00000000E+00
  0.00000000E+00  0.00000000E+00  0.00000000E+00
  0.00000000E+00  0.00000000E+00  0.00000000E+00
  0.00000000E+00  0.00000000E+00  0.00000000E+00
  0.00000000E+00  0.00000000E+00  0.00000000E+00
  0.00000000E+00  0.00000000E+00  0.00000000E+00
  0.00000000E+00  0.00000000E+00  0.00000000E+00
  0.00000000E+00  0.00000000E+00  0.00000000E+00
  0.00000000E+00  0.00000000E+00  0.00000000E+00
  0.00000000E+00  0.00000000E+00  0.00000000E+00
  0.00000000E+00  0.00000000E+00  0.00000000E+00
  0.00000000E+00  0.00000000E+00  0.00000000E+00
