MAPbI3-cubic                            
   1.00000000000000     
    12.6934216067070640    0.0000000000000000    0.0000000000000000
     0.0000000000000000   12.6942802903675620    0.0000000000000000
     0.0000000000000000    0.0000000000000000   12.6950893721022808
   Cs   Pb   Sn   I 
     8     5     3    24
Selective dynamics
Direct
  0.9877905037652706  0.9988321841235315  0.9898427748209514   T   T   T
 -0.0009792754944948  0.0281811193002840  0.4871265629537502   T   T   T
  0.9881078467189152  0.5039787664364439  0.9936400303780676   T   T   T
  0.0143986846982322  0.5318402361514233  0.5046555951176639   T   T   T
  0.4856013153017678  0.9681597638485767  0.9953444048823361   T   T   T
  0.5118921532810848  0.9960212335635561  0.5063599696219324   T   T   T
  0.5009792754944948  0.4718188806997161  0.0128734370462498   T   T   T
  0.5122094962347294  0.5011678158764685  0.5101572251790486   T   T   T
  0.2500000000000000  0.2500000000000000  0.2500000000000000   T   T   T
  0.2500000000000000  0.2500000000000000  0.7500000000000000   T   T   T
  0.2500000000000000  0.7500000000000000  0.2500000000000000   T   T   T
  0.7500000000000000  0.2500000000000000  0.2500000000000000   T   T   T
  0.7500000000000000  0.7500000000000000  0.7500000000000000   T   T   T
  0.2500000000000000  0.7500000000000000  0.7500000000000000   T   T   T
  0.7500000000000000  0.2500000000000000  0.7500000000000000   T   T   T
  0.7500000000000000  0.7500000000000000  0.2500000000000000   T   T   T
  0.2152758335678308  0.2960982806285647 -0.0001244235213193   T   T   T
  0.2847241814321669  0.2039017343714330  0.5001244235213189   T   T   T
  0.2856252534575373  0.7088792360339242  0.9973788403679749   T   T   T
  0.2143747615424605  0.7911207639660758  0.5026211596320251   T   T   T
  0.7922208039144374  0.2644962943032618  0.9976244336649378   T   T   T
  0.7077791960855626  0.2355037206967359  0.5023755663350622   T   T   T
  0.7149384503284748  0.7342671778819125  0.0022807251483711   T   T   T
  0.7850615496715252  0.7657328221180875  0.4977192748516289   T   T   T
  0.2093781440302391 -0.0001497900556263  0.2089672746414665   T   T   T
  0.2339614230117817  0.9971975144733122  0.7943968304617056   T   T   T
  0.2906218709697587  0.5001497900556264  0.2910327403585313   T   T   T
  0.2660385919882160  0.5028024855266878  0.7056031695382944   T   T   T
  0.7934618035416534  0.9976020563663845  0.2386586998195872   T   T   T
  0.7682590128398105  0.0024897254946131  0.7629385202039390   T   T   T
  0.7065381964583466  0.5023979436336155  0.2613413151804102   T   T   T
  0.7317409871601895  0.4975102745053870  0.7370614797960610   T   T   T
 -0.0003754365989264  0.2904788163903755  0.2962910056606480   T   T   T
  0.9974483692895322  0.2679720174871312  0.7056410583825753   T   T   T
  0.9974163050592701  0.7084563116177297  0.2246440875965436   T   T   T
  0.0025134777662163  0.7303340044676936  0.7826949722693435   T   T   T
  0.5003754365989265  0.2095211986096223  0.2037090093393497   T   T   T
  0.5025516307104678  0.2320279975128663  0.7943589416174247   T   T   T
  0.5025836949407299  0.7915436883822703  0.2753559274034542   T   T   T
  0.4974865222337836  0.7696659955323064  0.7173050277306565   T   T   T
 
  0.00000000E+00  0.00000000E+00  0.00000000E+00
  0.00000000E+00  0.00000000E+00  0.00000000E+00
  0.00000000E+00  0.00000000E+00  0.00000000E+00
  0.00000000E+00  0.00000000E+00  0.00000000E+00
  0.00000000E+00  0.00000000E+00  0.00000000E+00
  0.00000000E+00  0.00000000E+00  0.00000000E+00
  0.00000000E+00  0.00000000E+00  0.00000000E+00
  0.00000000E+00  0.00000000E+00  0.00000000E+00
  0.00000000E+00  0.00000000E+00  0.00000000E+00
  0.00000000E+00  0.00000000E+00  0.00000000E+00
  0.00000000E+00  0.00000000E+00  0.00000000E+00
  0.00000000E+00  0.00000000E+00  0.00000000E+00
  0.00000000E+00  0.00000000E+00  0.00000000E+00
  0.00000000E+00  0.00000000E+00  0.00000000E+00
  0.00000000E+00  0.00000000E+00  0.00000000E+00
  0.00000000E+00  0.00000000E+00  0.00000000E+00
  0.00000000E+00  0.00000000E+00  0.00000000E+00
  0.00000000E+00  0.00000000E+00  0.00000000E+00
  0.00000000E+00  0.00000000E+00  0.00000000E+00
  0.00000000E+00  0.00000000E+00  0.00000000E+00
  0.00000000E+00  0.00000000E+00  0.00000000E+00
  0.00000000E+00  0.00000000E+00  0.00000000E+00
  0.00000000E+00  0.00000000E+00  0.00000000E+00
  0.00000000E+00  0.00000000E+00  0.00000000E+00
  0.00000000E+00  0.00000000E+00  0.00000000E+00
  0.00000000E+00  0.00000000E+00  0.00000000E+00
  0.00000000E+00  0.00000000E+00  0.00000000E+00
  0.00000000E+00  0.00000000E+00  0.00000000E+00
  0.00000000E+00  0.00000000E+00  0.00000000E+00
  0.00000000E+00  0.00000000E+00  0.00000000E+00
  0.00000000E+00  0.00000000E+00  0.00000000E+00
  0.00000000E+00  0.00000000E+00  0.00000000E+00
  0.00000000E+00  0.00000000E+00  0.00000000E+00
  0.00000000E+00  0.00000000E+00  0.00000000E+00
  0.00000000E+00  0.00000000E+00  0.00000000E+00
  0.00000000E+00  0.00000000E+00  0.00000000E+00
  0.00000000E+00  0.00000000E+00  0.00000000E+00
  0.00000000E+00  0.00000000E+00  0.00000000E+00
  0.00000000E+00  0.00000000E+00  0.00000000E+00
  0.00000000E+00  0.00000000E+00  0.00000000E+00
