MAPbI3-cubic                            
   1.00000000000000     
    12.6204213591868637    0.0000000000000000    0.0000000000000000
     0.0000000000000000   12.6230302112910344    0.0000000000000000
     0.0000000000000000    0.0000000000000000   12.6282676539969803
   Cs   Pb   Sn   I 
     8     2     6    24
Selective dynamics
Direct
  0.9763846800808066  0.9698205804603279  0.0000000000000000   T   T   T
  0.0162507893515077  0.0311640244250993  0.5000000000000000   T   T   T
  0.9657302540512201  0.4911793709015354  0.0000000000000000   T   T   T
  0.0318395974844290  0.5275425610719467  0.5000000000000000   T   T   T
  0.4681604025155710  0.9724574389280533  0.0000000000000000   T   T   T
  0.5342697459487799  0.0088206290984646  0.5000000000000000   T   T   T
  0.4837492106484923  0.4688359755749007  0.0000000000000000   T   T   T
  0.5236153199191934  0.5301794195396721  0.5000000000000000   T   T   T
  0.2500000000000000  0.2500000000000000  0.2500000000000000   T   T   T
  0.2500000000000000  0.2500000000000000  0.7500000000000000   T   T   T
  0.2500000000000000  0.7500000000000000  0.2500000000000000   T   T   T
  0.2500000000000000  0.7500000000000000  0.7500000000000000   T   T   T
  0.7500000000000000  0.2500000000000000  0.2500000000000000   T   T   T
  0.7500000000000000  0.2500000000000000  0.7500000000000000   T   T   T
  0.7500000000000000  0.7500000000000000  0.2500000000000000   T   T   T
  0.7500000000000000  0.7500000000000000  0.7500000000000000   T   T   T
  0.2161945075984327  0.2994468366424244  0.0000000000000000   T   T   T
  0.2838055074015650  0.2005531783575734  0.5000000000000000   T   T   T
  0.2769275098774824  0.7131411048562242  0.0000000000000000   T   T   T
  0.2230725051225153  0.7868588951437758  0.5000000000000000   T   T   T
  0.7898300362952669  0.2294064756985325  0.0000000000000000   T   T   T
  0.7101699637047331  0.2705935393014651  0.5000000000000000   T   T   T
  0.7264163206382529  0.7754046652726597  0.0000000000000000   T   T   T
  0.7735836793617471  0.7245953347273403  0.5000000000000000   T   T   T
  0.2113580544306865  0.9972300904802280  0.2091924077069695   T   T   T
  0.2113580544306865  0.9972300904802280  0.7908076072930285   T   T   T
  0.2886419605693111  0.5027699095197720  0.2908076072930285   T   T   T
  0.2886419605693111  0.5027699095197720  0.7091923927069715   T   T   T
  0.7876824977842700 -0.0000936142123119  0.2772111270210753   T   T   T
  0.7876824977842700 -0.0000936142123119  0.7227888879789222   T   T   T
  0.7123175022157300  0.5000936142123118  0.2227888879789222   T   T   T
  0.7123175022157300  0.5000936142123118  0.7772111120210778   T   T   T
  0.9972937842539669  0.2890749437805473  0.2902007113127538   T   T   T
  0.9972937842539669  0.2890749437805473  0.7097992886872458   T   T   T
 -0.0001910797349521  0.7132177175341409  0.2255092544153570   T   T   T
 -0.0001910797349521  0.7132177175341409  0.7744907605846406   T   T   T
  0.5027062157460331  0.2109250712194503  0.2097993036872439   T   T   T
  0.5027062157460331  0.2109250712194503  0.7902007113127542   T   T   T
  0.5001910797349524  0.7867822824658591  0.2744907605846404   T   T   T
  0.5001910797349524  0.7867822824658591  0.7255092394153594   T   T   T
 
  0.00000000E+00  0.00000000E+00  0.00000000E+00
  0.00000000E+00  0.00000000E+00  0.00000000E+00
  0.00000000E+00  0.00000000E+00  0.00000000E+00
  0.00000000E+00  0.00000000E+00  0.00000000E+00
  0.00000000E+00  0.00000000E+00  0.00000000E+00
  0.00000000E+00  0.00000000E+00  0.00000000E+00
  0.00000000E+00  0.00000000E+00  0.00000000E+00
  0.00000000E+00  0.00000000E+00  0.00000000E+00
  0.00000000E+00  0.00000000E+00  0.00000000E+00
  0.00000000E+00  0.00000000E+00  0.00000000E+00
  0.00000000E+00  0.00000000E+00  0.00000000E+00
  0.00000000E+00  0.00000000E+00  0.00000000E+00
  0.00000000E+00  0.00000000E+00  0.00000000E+00
  0.00000000E+00  0.00000000E+00  0.00000000E+00
  0.00000000E+00  0.00000000E+00  0.00000000E+00
  0.00000000E+00  0.00000000E+00  0.00000000E+00
  0.00000000E+00  0.00000000E+00  0.00000000E+00
  0.00000000E+00  0.00000000E+00  0.00000000E+00
  0.00000000E+00  0.00000000E+00  0.00000000E+00
  0.00000000E+00  0.00000000E+00  0.00000000E+00
  0.00000000E+00  0.00000000E+00  0.00000000E+00
  0.00000000E+00  0.00000000E+00  0.00000000E+00
  0.00000000E+00  0.00000000E+00  0.00000000E+00
  0.00000000E+00  0.00000000E+00  0.00000000E+00
  0.00000000E+00  0.00000000E+00  0.00000000E+00
  0.00000000E+00  0.00000000E+00  0.00000000E+00
  0.00000000E+00  0.00000000E+00  0.00000000E+00
  0.00000000E+00  0.00000000E+00  0.00000000E+00
  0.00000000E+00  0.00000000E+00  0.00000000E+00
  0.00000000E+00  0.00000000E+00  0.00000000E+00
  0.00000000E+00  0.00000000E+00  0.00000000E+00
  0.00000000E+00  0.00000000E+00  0.00000000E+00
  0.00000000E+00  0.00000000E+00  0.00000000E+00
  0.00000000E+00  0.00000000E+00  0.00000000E+00
  0.00000000E+00  0.00000000E+00  0.00000000E+00
  0.00000000E+00  0.00000000E+00  0.00000000E+00
  0.00000000E+00  0.00000000E+00  0.00000000E+00
  0.00000000E+00  0.00000000E+00  0.00000000E+00
  0.00000000E+00  0.00000000E+00  0.00000000E+00
  0.00000000E+00  0.00000000E+00  0.00000000E+00
