MASnI3-cubic                            
   1.00000000000000     
    12.5588821018135857    0.0000000000000000    0.0000000000000000
     0.0000000000000000   12.5583715224155501    0.0000000000000000
     0.0000000000000000    0.0000000000000000   12.5579443935593602
   Cs   Sn   I 
     8     8    24
Selective dynamics
Direct
  0.0000000000000000  0.0000057915702349  0.0000000000000000   T   T   T
  0.0000000000000000  0.0313172997120329  0.5000000000000000   T   T   T
  0.0000000000000000  0.5000509554853837  0.0000000000000000   T   T   T
  0.0000000000000000  0.5313044919037913  0.5000000000000000   T   T   T
  0.5000000000000000  0.9686955080962087  0.0000000000000000   T   T   T
  0.5000000000000000  0.9999490445146163  0.5000000000000000   T   T   T
  0.5000000000000000  0.4686827002879671  0.0000000000000000   T   T   T
  0.5000000000000000  0.4999942084297651  0.5000000000000000   T   T   T
  0.2500000000000000  0.2500000000000000  0.2500000000000000   T   T   T
  0.2500000000000000  0.2500000000000000  0.7500000000000000   T   T   T
  0.2500000000000000  0.7500000000000000  0.2500000000000000   T   T   T
  0.2500000000000000  0.7500000000000000  0.7500000000000000   T   T   T
  0.7500000000000000  0.2500000000000000  0.2500000000000000   T   T   T
  0.7500000000000000  0.2500000000000000  0.7500000000000000   T   T   T
  0.7500000000000000  0.7500000000000000  0.2500000000000000   T   T   T
  0.7500000000000000  0.7500000000000000  0.7500000000000000   T   T   T
  0.2221830802821917  0.2786124728466750  0.0000000000000000   T   T   T
  0.2778169347178059  0.2213875421533227  0.5000000000000000   T   T   T
  0.2838390081736936  0.7198534835911510  0.0000000000000000   T   T   T
  0.2161610068263041  0.7801465164088490  0.5000000000000000   T   T   T
  0.7778169347178060  0.2786124728466750  0.0000000000000000   T   T   T
  0.7221830652821940  0.2213875421533227  0.5000000000000000   T   T   T
  0.7161609918263064  0.7198534835911510  0.0000000000000000   T   T   T
  0.7838390081736936  0.7801465164088490  0.5000000000000000   T   T   T
  0.2231529245743708  0.0000355698069545  0.2231113744225477   T   T   T
  0.2231529245743708  0.0000355698069545  0.7768886405774499   T   T   T
  0.2768470904256269  0.4999644301930454  0.2768886405774499   T   T   T
  0.2768470904256269  0.4999644301930454  0.7231113594225501   T   T   T
  0.7768470904256269  0.0000355698069545  0.2231113744225477   T   T   T
  0.7768470904256269  0.0000355698069545  0.7768886405774499   T   T   T
  0.7231529095743731  0.4999644301930454  0.2768886405774499   T   T   T
  0.7231529095743731  0.4999644301930454  0.7231113594225501   T   T   T
  0.0000000000000000  0.2801331733765683  0.2838266649003202   T   T   T
  0.0000000000000000  0.2801331733765683  0.7161733350996798   T   T   T
  0.0000000000000000  0.7214205595613566  0.2221519254761608   T   T   T
  0.0000000000000000  0.7214205595613566  0.7778480895238368   T   T   T
  0.5000000000000000  0.2198668416234294  0.2161733500996776   T   T   T
  0.5000000000000000  0.2198668416234294  0.7838266649003202   T   T   T
  0.5000000000000000  0.7785794404386434  0.2778480895238369   T   T   T
  0.5000000000000000  0.7785794404386434  0.7221519104761632   T   T   T
 
  0.00000000E+00  0.00000000E+00  0.00000000E+00
  0.00000000E+00  0.00000000E+00  0.00000000E+00
  0.00000000E+00  0.00000000E+00  0.00000000E+00
  0.00000000E+00  0.00000000E+00  0.00000000E+00
  0.00000000E+00  0.00000000E+00  0.00000000E+00
  0.00000000E+00  0.00000000E+00  0.00000000E+00
  0.00000000E+00  0.00000000E+00  0.00000000E+00
  0.00000000E+00  0.00000000E+00  0.00000000E+00
  0.00000000E+00  0.00000000E+00  0.00000000E+00
  0.00000000E+00  0.00000000E+00  0.00000000E+00
  0.00000000E+00  0.00000000E+00  0.00000000E+00
  0.00000000E+00  0.00000000E+00  0.00000000E+00
  0.00000000E+00  0.00000000E+00  0.00000000E+00
  0.00000000E+00  0.00000000E+00  0.00000000E+00
  0.00000000E+00  0.00000000E+00  0.00000000E+00
  0.00000000E+00  0.00000000E+00  0.00000000E+00
  0.00000000E+00  0.00000000E+00  0.00000000E+00
  0.00000000E+00  0.00000000E+00  0.00000000E+00
  0.00000000E+00  0.00000000E+00  0.00000000E+00
  0.00000000E+00  0.00000000E+00  0.00000000E+00
  0.00000000E+00  0.00000000E+00  0.00000000E+00
  0.00000000E+00  0.00000000E+00  0.00000000E+00
  0.00000000E+00  0.00000000E+00  0.00000000E+00
  0.00000000E+00  0.00000000E+00  0.00000000E+00
  0.00000000E+00  0.00000000E+00  0.00000000E+00
  0.00000000E+00  0.00000000E+00  0.00000000E+00
  0.00000000E+00  0.00000000E+00  0.00000000E+00
  0.00000000E+00  0.00000000E+00  0.00000000E+00
  0.00000000E+00  0.00000000E+00  0.00000000E+00
  0.00000000E+00  0.00000000E+00  0.00000000E+00
  0.00000000E+00  0.00000000E+00  0.00000000E+00
  0.00000000E+00  0.00000000E+00  0.00000000E+00
  0.00000000E+00  0.00000000E+00  0.00000000E+00
  0.00000000E+00  0.00000000E+00  0.00000000E+00
  0.00000000E+00  0.00000000E+00  0.00000000E+00
  0.00000000E+00  0.00000000E+00  0.00000000E+00
  0.00000000E+00  0.00000000E+00  0.00000000E+00
  0.00000000E+00  0.00000000E+00  0.00000000E+00
  0.00000000E+00  0.00000000E+00  0.00000000E+00
  0.00000000E+00  0.00000000E+00  0.00000000E+00
