MAPbI3-cubic                            
   1.00000000000000     
    12.6394395565677726    0.0000000000000000    0.0000000000000000
     0.0000000000000000   12.6455454901910027    0.0000000000000000
     0.0000000000000000    0.0000000000000000   12.6495890018939541
   Cs   Pb   Sn   I 
     8     3     5    24
Selective dynamics
Direct
  0.9726628195086220  0.9683974287262674  0.9982399916091660   T   T   T
  0.0119862027715627  0.0350006749806222  0.5001193379692895   T   T   T
  0.9650641240592499  0.4859897056828856  0.9979563157310607   T   T   T
  0.0326063636245503  0.5266041719614533  0.5005740675650322   T   T   T
  0.4673936363754496  0.9733958280385467 -0.0005740675650322   T   T   T
  0.5349358759407501  0.0140102943171145  0.5020436842689393   T   T   T
  0.4880137972284374  0.4649993250193778  0.9998806620307105   T   T   T
  0.5273371804913780  0.5316025712737326  0.5017600083908340   T   T   T
  0.2500000000000000  0.2500000000000000  0.2500000000000000   T   T   T
  0.2500000000000000  0.2500000000000000  0.7500000000000000   T   T   T
  0.2500000000000000  0.7500000000000000  0.2500000000000000   T   T   T
  0.2500000000000000  0.7500000000000000  0.7500000000000000   T   T   T
  0.7500000000000000  0.2500000000000000  0.2500000000000000   T   T   T
  0.7500000000000000  0.2500000000000000  0.7500000000000000   T   T   T
  0.7500000000000000  0.7500000000000000  0.2500000000000000   T   T   T
  0.7500000000000000  0.7500000000000000  0.7500000000000000   T   T   T
  0.2201106508591346  0.3012454137941838 -0.0000888541893758   T   T   T
  0.2798893641408630  0.1987546012058138  0.5000888541893758   T   T   T
  0.2862571762401929  0.7114284237270326  0.9975905445609624   T   T   T
  0.2137428387598048  0.7885715762729674  0.5024094554390376   T   T   T
  0.7857342550334558  0.2288764422097485  0.9999319959342133   T   T   T
  0.7142657449665442  0.2711235727902491  0.5000680040657867   T   T   T
  0.7221754140640826  0.7756384030756759  0.9997173533044619   T   T   T
  0.7778245859359174  0.7243615969243241  0.5002826466955381   T   T   T
  0.2080393278094518  0.9997427276450688  0.2042011937118192   T   T   T
  0.2118872806427350  0.9974796174365432  0.7929654919223449   T   T   T
  0.2919606871905459  0.5002572723549312  0.2957988212881784   T   T   T
  0.2881127343572626  0.5025203825634568  0.7070345080776551   T   T   T
  0.7886182857240860  0.0001429114771611  0.2752722306280904   T   T   T
  0.7871827540503364  0.9999199812549503  0.7244156235518393   T   T   T
  0.7113817142759140  0.4998570885228388  0.2247277843719074   T   T   T
  0.7128172459496636  0.5000800187450497  0.7755843764481607   T   T   T
  0.9973736156994065  0.2908737858235056  0.2868408054693472   T   T   T
  0.9972516544537339  0.2901707396347792  0.7133459578085211   T   T   T
  0.9969811372558364  0.7090742951106572  0.2183238344100101   T   T   T
 -0.0001711490581147  0.7132830943454451  0.7793647151386640   T   T   T
  0.5026263843005935  0.2091262291764991  0.2131592095306504   T   T   T
  0.5027483455462661  0.2098292753652184  0.7866540421914789   T   T   T
  0.5030188627441636  0.7909257048893428  0.2816761805899875   T   T   T
  0.5001711490581149  0.7867169056545549  0.7206352848613360   T   T   T
 
  0.00000000E+00  0.00000000E+00  0.00000000E+00
  0.00000000E+00  0.00000000E+00  0.00000000E+00
  0.00000000E+00  0.00000000E+00  0.00000000E+00
  0.00000000E+00  0.00000000E+00  0.00000000E+00
  0.00000000E+00  0.00000000E+00  0.00000000E+00
  0.00000000E+00  0.00000000E+00  0.00000000E+00
  0.00000000E+00  0.00000000E+00  0.00000000E+00
  0.00000000E+00  0.00000000E+00  0.00000000E+00
  0.00000000E+00  0.00000000E+00  0.00000000E+00
  0.00000000E+00  0.00000000E+00  0.00000000E+00
  0.00000000E+00  0.00000000E+00  0.00000000E+00
  0.00000000E+00  0.00000000E+00  0.00000000E+00
  0.00000000E+00  0.00000000E+00  0.00000000E+00
  0.00000000E+00  0.00000000E+00  0.00000000E+00
  0.00000000E+00  0.00000000E+00  0.00000000E+00
  0.00000000E+00  0.00000000E+00  0.00000000E+00
  0.00000000E+00  0.00000000E+00  0.00000000E+00
  0.00000000E+00  0.00000000E+00  0.00000000E+00
  0.00000000E+00  0.00000000E+00  0.00000000E+00
  0.00000000E+00  0.00000000E+00  0.00000000E+00
  0.00000000E+00  0.00000000E+00  0.00000000E+00
  0.00000000E+00  0.00000000E+00  0.00000000E+00
  0.00000000E+00  0.00000000E+00  0.00000000E+00
  0.00000000E+00  0.00000000E+00  0.00000000E+00
  0.00000000E+00  0.00000000E+00  0.00000000E+00
  0.00000000E+00  0.00000000E+00  0.00000000E+00
  0.00000000E+00  0.00000000E+00  0.00000000E+00
  0.00000000E+00  0.00000000E+00  0.00000000E+00
  0.00000000E+00  0.00000000E+00  0.00000000E+00
  0.00000000E+00  0.00000000E+00  0.00000000E+00
  0.00000000E+00  0.00000000E+00  0.00000000E+00
  0.00000000E+00  0.00000000E+00  0.00000000E+00
  0.00000000E+00  0.00000000E+00  0.00000000E+00
  0.00000000E+00  0.00000000E+00  0.00000000E+00
  0.00000000E+00  0.00000000E+00  0.00000000E+00
  0.00000000E+00  0.00000000E+00  0.00000000E+00
  0.00000000E+00  0.00000000E+00  0.00000000E+00
  0.00000000E+00  0.00000000E+00  0.00000000E+00
  0.00000000E+00  0.00000000E+00  0.00000000E+00
  0.00000000E+00  0.00000000E+00  0.00000000E+00
