MAPbI3-cubic                            
   1.00000000000000     
    12.6761108043421391    0.0000000000000000    0.0000000000000000
     0.0000000000000000   12.6759743761161463    0.0000000000000000
     0.0000000000000000    0.0000000000000000   12.6762175762429035
   Cs   Pb   Sn   I 
     8     4     4    24
Selective dynamics
Direct
  0.9774897846774099  0.9680524101088560  0.9974175319610479   T   T   T
  0.0183359764130568  0.0343990677320565  0.4979265459474910   T   T   T
  0.9632874045227205  0.4886710618821893  0.9990660537492015   T   T   T
  0.0319515432062236  0.5279450336615336  0.4991741352724838   T   T   T
  0.4680484567937764  0.9720549663384664  0.0008258647275162   T   T   T
  0.5367125954772795  0.0113289381178106  0.5009339462507985   T   T   T
  0.4816640235869432  0.4656009322679435  0.0020734540525090   T   T   T
  0.5225102153225901  0.5319475898911440  0.5025824680389521   T   T   T
  0.2500000000000000  0.2500000000000000  0.2500000000000000   T   T   T
  0.2500000000000000  0.2500000000000000  0.7500000000000000   T   T   T
  0.2500000000000000  0.7500000000000000  0.2500000000000000   T   T   T
  0.7500000000000000  0.2500000000000000  0.7500000000000000   T   T   T
  0.7500000000000000  0.7500000000000000  0.2500000000000000   T   T   T
  0.7500000000000000  0.7500000000000000  0.7500000000000000   T   T   T
  0.2500000000000000  0.7500000000000000  0.7500000000000000   T   T   T
  0.7500000000000000  0.2500000000000000  0.2500000000000000   T   T   T
  0.2144045779035668  0.2975874480456125  0.0000848992689571   T   T   T
  0.2855954370964308  0.2024125669543852  0.4999151007310429   T   T   T
  0.2826215777550500  0.7129660095572506  0.9974905349460862   T   T   T
  0.2173784372449477  0.7870339904427494  0.5025094650539138   T   T   T
  0.7934588533146588  0.2265165831432271  0.0025747845478721   T   T   T
  0.7065411466853412  0.2734834318567705  0.4974252154521279   T   T   T
  0.7262320797249866  0.7791714066653707 -0.0000322326560754   T   T   T
  0.7737679202750134  0.7208285933346293  0.5000322326560752   T   T   T
  0.2080373877794270 -0.0001148218239097  0.2077626724733305   T   T   T
  0.2116949194613026  0.9972855276277250  0.7893308313642970   T   T   T
  0.2919626272205705  0.5001148218239098  0.2922373425266671   T   T   T
  0.2883050955386950  0.5027144723722750  0.7106691686357030   T   T   T
  0.7886109227289479 -0.0000706235525704  0.2775826802027155   T   T   T
  0.7915727096211685  0.9974373064171196  0.7198586460024630   T   T   T
  0.7113890772710521  0.5000706235525704  0.2224173347972822   T   T   T
  0.7084272903788315  0.5025626935828804  0.7801413539975370   T   T   T
  0.9973026625952958  0.2900586776431929  0.2913894761919336   T   T   T
  0.9998370087072489  0.2918895147188319  0.7063223844816167   T   T   T
  0.9973071557515993  0.7093096413024230  0.2214806696756192   T   T   T
  0.9997166684546654  0.7121927176969749  0.7770723767633995   T   T   T
  0.5026973374047042  0.2099413373568048  0.2086105388080642   T   T   T
  0.5001629912927511  0.2081105002811658  0.7936776155183833   T   T   T
  0.5026928442484007  0.7906903586975770  0.2785193453243786   T   T   T
  0.5002833315453346  0.7878072823030251  0.7229276232366005   T   T   T
 
  0.00000000E+00  0.00000000E+00  0.00000000E+00
  0.00000000E+00  0.00000000E+00  0.00000000E+00
  0.00000000E+00  0.00000000E+00  0.00000000E+00
  0.00000000E+00  0.00000000E+00  0.00000000E+00
  0.00000000E+00  0.00000000E+00  0.00000000E+00
  0.00000000E+00  0.00000000E+00  0.00000000E+00
  0.00000000E+00  0.00000000E+00  0.00000000E+00
  0.00000000E+00  0.00000000E+00  0.00000000E+00
  0.00000000E+00  0.00000000E+00  0.00000000E+00
  0.00000000E+00  0.00000000E+00  0.00000000E+00
  0.00000000E+00  0.00000000E+00  0.00000000E+00
  0.00000000E+00  0.00000000E+00  0.00000000E+00
  0.00000000E+00  0.00000000E+00  0.00000000E+00
  0.00000000E+00  0.00000000E+00  0.00000000E+00
  0.00000000E+00  0.00000000E+00  0.00000000E+00
  0.00000000E+00  0.00000000E+00  0.00000000E+00
  0.00000000E+00  0.00000000E+00  0.00000000E+00
  0.00000000E+00  0.00000000E+00  0.00000000E+00
  0.00000000E+00  0.00000000E+00  0.00000000E+00
  0.00000000E+00  0.00000000E+00  0.00000000E+00
  0.00000000E+00  0.00000000E+00  0.00000000E+00
  0.00000000E+00  0.00000000E+00  0.00000000E+00
  0.00000000E+00  0.00000000E+00  0.00000000E+00
  0.00000000E+00  0.00000000E+00  0.00000000E+00
  0.00000000E+00  0.00000000E+00  0.00000000E+00
  0.00000000E+00  0.00000000E+00  0.00000000E+00
  0.00000000E+00  0.00000000E+00  0.00000000E+00
  0.00000000E+00  0.00000000E+00  0.00000000E+00
  0.00000000E+00  0.00000000E+00  0.00000000E+00
  0.00000000E+00  0.00000000E+00  0.00000000E+00
  0.00000000E+00  0.00000000E+00  0.00000000E+00
  0.00000000E+00  0.00000000E+00  0.00000000E+00
  0.00000000E+00  0.00000000E+00  0.00000000E+00
  0.00000000E+00  0.00000000E+00  0.00000000E+00
  0.00000000E+00  0.00000000E+00  0.00000000E+00
  0.00000000E+00  0.00000000E+00  0.00000000E+00
  0.00000000E+00  0.00000000E+00  0.00000000E+00
  0.00000000E+00  0.00000000E+00  0.00000000E+00
  0.00000000E+00  0.00000000E+00  0.00000000E+00
  0.00000000E+00  0.00000000E+00  0.00000000E+00
