MAPbI3-cubic                            
   1.00000000000000     
    12.7442257572524902    0.0000000000000000    0.0000000000000000
     0.0000000000000000   12.7453760118258188    0.0000000000000000
     0.0000000000000000    0.0000000000000000   12.7465242262087397
   Cs   Pb   Sn   I 
     8     7     1    24
Selective dynamics
Direct
  0.9876965344293865  0.0022433421659293  0.9873606177594318   T   T   T
  0.0003996411151247  0.0302277609339884  0.4844381162969293   T   T   T
  0.9908134781447313  0.5054944825818858  0.9893159573813920   T   T   T
  0.0124838173194588  0.5327209480190932  0.5038782995532987   T   T   T
  0.4875161826805411  0.9672790519809068  0.9961217004467013   T   T   T
  0.5091865218552687  0.9945055174181142  0.5106840426186080   T   T   T
  0.4996003588848753  0.4697722390660117  0.0155618837030707   T   T   T
  0.5123034655706135  0.4977566578340707  0.5126393822405682   T   T   T
  0.2500000000000000  0.2500000000000000  0.2500000000000000   T   T   T
  0.2500000000000000  0.2500000000000000  0.7500000000000000   T   T   T
  0.2500000000000000  0.7500000000000000  0.2500000000000000   T   T   T
  0.2500000000000000  0.7500000000000000  0.7500000000000000   T   T   T
  0.7500000000000000  0.2500000000000000  0.2500000000000000   T   T   T
  0.7500000000000000  0.2500000000000000  0.7500000000000000   T   T   T
  0.7500000000000000  0.7500000000000000  0.2500000000000000   T   T   T
  0.7500000000000000  0.7500000000000000  0.7500000000000000   T   T   T
  0.2154813757603080  0.2969112262355792  0.0000008544832790   T   T   T
  0.2845186392396896  0.2030887887644185  0.4999991455167210   T   T   T
  0.2871682402249797  0.7062914560673269  0.9997629103573249   T   T   T
  0.2128317747750180  0.7937085439326731  0.5002370896426751   T   T   T
  0.7963138311802064  0.2682239301654126  0.0000329713315814   T   T   T
  0.7036861688197936  0.2317760848345852  0.4999670286684186   T   T   T
  0.7146331657386569  0.7316680085199969  0.9974376461515474   T   T   T
  0.7853668342613431  0.7683319914800031  0.5025623538484526   T   T   T
  0.2065329217518562  0.9999443036617105  0.2087820843768656   T   T   T
  0.2361784082672292  0.9997576361598840  0.7984553629479400   T   T   T
  0.2934670932481416  0.5000556963382895  0.2912179306231322   T   T   T
  0.2638216067327686  0.5002423638401160  0.7015446370520600   T   T   T
  0.7989296450910947  0.0000555608406430  0.2361774543354404   T   T   T
  0.7636464563282650  0.9974289751972645  0.7666705007032955   T   T   T
  0.7010703549089053  0.4999444391593569  0.2638225606645573   T   T   T
  0.7363535436717350  0.5025710248027355  0.7333294992967045   T   T   T
  0.9998064685161042  0.2912173510510362  0.2965937635050482   T   T   T
 -0.0001288450601680  0.2661849444385427  0.7024994177102585   T   T   T
 -0.0000025771982570  0.7010683743193844  0.2253744021882937   T   T   T
  0.9976475516134167  0.7340914627881707  0.7832672927554039   T   T   T
  0.5001935314838958  0.2087826639489614  0.2034062514949495   T   T   T
  0.5001288450601681  0.2338150705614549  0.7975005822897415   T   T   T
  0.5000025771982570  0.7989316256806156  0.2746256128117039   T   T   T
  0.5023524483865833  0.7659085372118293  0.7167327072445961   T   T   T
 
  0.00000000E+00  0.00000000E+00  0.00000000E+00
  0.00000000E+00  0.00000000E+00  0.00000000E+00
  0.00000000E+00  0.00000000E+00  0.00000000E+00
  0.00000000E+00  0.00000000E+00  0.00000000E+00
  0.00000000E+00  0.00000000E+00  0.00000000E+00
  0.00000000E+00  0.00000000E+00  0.00000000E+00
  0.00000000E+00  0.00000000E+00  0.00000000E+00
  0.00000000E+00  0.00000000E+00  0.00000000E+00
  0.00000000E+00  0.00000000E+00  0.00000000E+00
  0.00000000E+00  0.00000000E+00  0.00000000E+00
  0.00000000E+00  0.00000000E+00  0.00000000E+00
  0.00000000E+00  0.00000000E+00  0.00000000E+00
  0.00000000E+00  0.00000000E+00  0.00000000E+00
  0.00000000E+00  0.00000000E+00  0.00000000E+00
  0.00000000E+00  0.00000000E+00  0.00000000E+00
  0.00000000E+00  0.00000000E+00  0.00000000E+00
  0.00000000E+00  0.00000000E+00  0.00000000E+00
  0.00000000E+00  0.00000000E+00  0.00000000E+00
  0.00000000E+00  0.00000000E+00  0.00000000E+00
  0.00000000E+00  0.00000000E+00  0.00000000E+00
  0.00000000E+00  0.00000000E+00  0.00000000E+00
  0.00000000E+00  0.00000000E+00  0.00000000E+00
  0.00000000E+00  0.00000000E+00  0.00000000E+00
  0.00000000E+00  0.00000000E+00  0.00000000E+00
  0.00000000E+00  0.00000000E+00  0.00000000E+00
  0.00000000E+00  0.00000000E+00  0.00000000E+00
  0.00000000E+00  0.00000000E+00  0.00000000E+00
  0.00000000E+00  0.00000000E+00  0.00000000E+00
  0.00000000E+00  0.00000000E+00  0.00000000E+00
  0.00000000E+00  0.00000000E+00  0.00000000E+00
  0.00000000E+00  0.00000000E+00  0.00000000E+00
  0.00000000E+00  0.00000000E+00  0.00000000E+00
  0.00000000E+00  0.00000000E+00  0.00000000E+00
  0.00000000E+00  0.00000000E+00  0.00000000E+00
  0.00000000E+00  0.00000000E+00  0.00000000E+00
  0.00000000E+00  0.00000000E+00  0.00000000E+00
  0.00000000E+00  0.00000000E+00  0.00000000E+00
  0.00000000E+00  0.00000000E+00  0.00000000E+00
  0.00000000E+00  0.00000000E+00  0.00000000E+00
  0.00000000E+00  0.00000000E+00  0.00000000E+00
