MAPbI3-cubic                            
   1.00000000000000     
    12.7181932665892017    0.0000000000000000    0.0000000000000000
     0.0000000000000000   12.7194181764425274    0.0000000000000000
     0.0000000000000000    0.0000000000000000   12.7206183527088363
   Cs   Pb   Sn   I 
     8     6     2    24
Selective dynamics
Direct
  0.0000450288394305  0.0000045108067882  0.0000457590281496   T   T   T
  0.9998538046225065  0.0326040791001977  0.4997199828842436   T   T   T
  0.9995828163322161  0.5000367608586035  0.9995832914054611   T   T   T
  0.0002793959486391  0.5325971140349054  0.5001464289628673   T   T   T
  0.4997206040513609  0.9674028859650946  0.9998535710371327   T   T   T
  0.5004171836677839  0.9999632391413965  0.5004167085945389   T   T   T
  0.5001461953774935  0.4673959208998023  0.0002800171157564   T   T   T
  0.4999549711605695  0.4999954891932117  0.4999542409718504   T   T   T
  0.2500000000000000  0.2500000000000000  0.2500000000000000   T   T   T
  0.2500000000000000  0.2500000000000000  0.7500000000000000   T   T   T
  0.2500000000000000  0.7500000000000000  0.2500000000000000   T   T   T
  0.7500000000000000  0.2500000000000000  0.7500000000000000   T   T   T
  0.7500000000000000  0.7500000000000000  0.2500000000000000   T   T   T
  0.7500000000000000  0.7500000000000000  0.7500000000000000   T   T   T
  0.2500000000000000  0.7500000000000000  0.7500000000000000   T   T   T
  0.7500000000000000  0.2500000000000000  0.2500000000000000   T   T   T
  0.2179110114776534  0.2860958244261969  0.0000346984549254   T   T   T
  0.2820890035223442  0.2139041905738008  0.4999653015450745   T   T   T
  0.2888379726307265  0.7172611437246532  0.9975678294753956   T   T   T
  0.2111620423692712  0.7827388562753468  0.5024321705246044   T   T   T
  0.7807073843416462  0.2844812656365117  0.0024594568516937   T   T   T
  0.7192926156583538  0.2155187493634860  0.4975405431483063   T   T   T
  0.7090181163472700  0.7155185153502343 -0.0000180399304835   T   T   T
  0.7909818836527300  0.7844814846497657  0.5000180399304905   T   T   T
  0.2172739406700235 -0.0000053747942987  0.2172465800116527   T   T   T
  0.2188199712099389  0.9974612020448586  0.7814127662959128   T   T   T
  0.2827260743299743  0.5000053747942987  0.2827534349883450   T   T   T
  0.2811800437900588  0.5025387979551414  0.7185872337040872   T   T   T
  0.7813860460574138  0.0025319457834736  0.2187928675297643   T   T   T
  0.7827614513616800  0.0000038457940958  0.7827877309597852   T   T   T
  0.7186139539425862  0.4974680542165265  0.2812071474702334   T   T   T
  0.7172385486383200  0.4999961542059040  0.7172122690402148   T   T   T
  0.9975650285017735  0.2827384396660888  0.2888550445103764   T   T   T
 -0.0000232037678731  0.2844862102098499  0.7090004744628343   T   T   T
  0.0000389070469037  0.7138838465324725  0.2178726047803213   T   T   T
  0.0024692938035779  0.7155014875257164  0.7807429684434998   T   T   T
  0.5024349714982265  0.2172615753339088  0.2111449704896213   T   T   T
  0.5000232037678731  0.2155138047901478  0.7909995255371657   T   T   T
  0.4999610929530963  0.7861161534675275  0.2821274102196764   T   T   T
  0.4975307061964221  0.7844985124742836  0.7192570315565002   T   T   T
 
  0.00000000E+00  0.00000000E+00  0.00000000E+00
  0.00000000E+00  0.00000000E+00  0.00000000E+00
  0.00000000E+00  0.00000000E+00  0.00000000E+00
  0.00000000E+00  0.00000000E+00  0.00000000E+00
  0.00000000E+00  0.00000000E+00  0.00000000E+00
  0.00000000E+00  0.00000000E+00  0.00000000E+00
  0.00000000E+00  0.00000000E+00  0.00000000E+00
  0.00000000E+00  0.00000000E+00  0.00000000E+00
  0.00000000E+00  0.00000000E+00  0.00000000E+00
  0.00000000E+00  0.00000000E+00  0.00000000E+00
  0.00000000E+00  0.00000000E+00  0.00000000E+00
  0.00000000E+00  0.00000000E+00  0.00000000E+00
  0.00000000E+00  0.00000000E+00  0.00000000E+00
  0.00000000E+00  0.00000000E+00  0.00000000E+00
  0.00000000E+00  0.00000000E+00  0.00000000E+00
  0.00000000E+00  0.00000000E+00  0.00000000E+00
  0.00000000E+00  0.00000000E+00  0.00000000E+00
  0.00000000E+00  0.00000000E+00  0.00000000E+00
  0.00000000E+00  0.00000000E+00  0.00000000E+00
  0.00000000E+00  0.00000000E+00  0.00000000E+00
  0.00000000E+00  0.00000000E+00  0.00000000E+00
  0.00000000E+00  0.00000000E+00  0.00000000E+00
  0.00000000E+00  0.00000000E+00  0.00000000E+00
  0.00000000E+00  0.00000000E+00  0.00000000E+00
  0.00000000E+00  0.00000000E+00  0.00000000E+00
  0.00000000E+00  0.00000000E+00  0.00000000E+00
  0.00000000E+00  0.00000000E+00  0.00000000E+00
  0.00000000E+00  0.00000000E+00  0.00000000E+00
  0.00000000E+00  0.00000000E+00  0.00000000E+00
  0.00000000E+00  0.00000000E+00  0.00000000E+00
  0.00000000E+00  0.00000000E+00  0.00000000E+00
  0.00000000E+00  0.00000000E+00  0.00000000E+00
  0.00000000E+00  0.00000000E+00  0.00000000E+00
  0.00000000E+00  0.00000000E+00  0.00000000E+00
  0.00000000E+00  0.00000000E+00  0.00000000E+00
  0.00000000E+00  0.00000000E+00  0.00000000E+00
  0.00000000E+00  0.00000000E+00  0.00000000E+00
  0.00000000E+00  0.00000000E+00  0.00000000E+00
  0.00000000E+00  0.00000000E+00  0.00000000E+00
  0.00000000E+00  0.00000000E+00  0.00000000E+00
