MAPbI3-cubic                            
   1.00000000000000     
    12.6680613150076802    0.0000000000000000    0.0000000000000000
     0.0000000000000000   12.6713146463051238    0.0000000000000000
     0.0000000000000000    0.0000000000000000   12.6723368755865984
   Cs   Pb   Sn   I 
     8     4     4    24
Selective dynamics
Direct
  0.9733727071791878 -0.0321983107396201 -0.0019194519159005   T   T   T
  0.0138646735854860  0.0344725271294314  0.4980482773891027   T   T   T
  0.9636318226176994  0.4808704197003817  0.0003923128184386   T   T   T
  0.0346162352408106  0.5220719234473810  0.5002948562802931   T   T   T
  0.4653837647591893  0.9779280765526190 -0.0002948562802932   T   T   T
  0.5363681773823006  0.0191295802996184  0.4996076871815616   T   T   T
  0.4861353264145140  0.4655274728705685  0.0019517226108972   T   T   T
  0.5266272928208122  0.5321983107396202  0.5019194519159006   T   T   T
  0.2500000000000000  0.2500000000000000  0.2500000000000000   T   T   T
  0.2500000000000000  0.2500000000000000  0.7500000000000000   T   T   T
  0.2500000000000000  0.7500000000000000  0.2500000000000000   T   T   T
  0.7500000000000000  0.7500000000000000  0.7500000000000000   T   T   T
  0.2500000000000000  0.7500000000000000  0.7500000000000000   T   T   T
  0.7500000000000000  0.2500000000000000  0.2500000000000000   T   T   T
  0.7500000000000000  0.2500000000000000  0.7500000000000000   T   T   T
  0.7500000000000000  0.7500000000000000  0.2500000000000000   T   T   T
  0.2202675726005322  0.2975768077470305  0.0000260070990517   T   T   T
  0.2797324423994654  0.2024232072529675  0.4999739929009485   T   T   T
  0.2903088405502215  0.7151082674087510  0.9976088527744362   T   T   T
  0.2096911744497762  0.7848917325912490  0.5023911472255638   T   T   T
  0.7826397592591050  0.2264031189718306  0.0000652066898681   T   T   T
  0.7173602407408950  0.2735968960281672  0.4999347933101319   T   T   T
  0.7168050855478094  0.7812194622190581  0.0024707329494621   T   T   T
  0.7831949144521906  0.7187805377809419  0.4975292670505378   T   T   T
  0.2079405677516632  0.0000229314965529  0.2067505954373270   T   T   T
  0.2108118417579703  0.9974213549956614  0.7899910193957386   T   T   T
  0.2920594472483418  0.4999770685034471  0.2932494195626706   T   T   T
  0.2891881732420276  0.5025786450043386  0.7100089806042614   T   T   T
  0.7887788470859187  0.0001044845066221  0.2766344546735172   T   T   T
  0.7919302328682505  0.0025584117281879  0.7215276176889053   T   T   T
  0.7112211529140813  0.4998955154933776  0.2233655603264802   T   T   T
  0.7080697671317495  0.4974415882718122  0.7784723823110947   T   T   T
  0.9972942797820845  0.2904609708219926  0.2843155441865007   T   T   T
  0.9972434480308386  0.2904899941818399  0.7158176680182817   T   T   T
  0.9972109712562037  0.7098949263807722  0.2142502900451259   T   T   T
  0.0021381398874615  0.7095832268039418  0.7862973630783223   T   T   T
  0.5027057202179155  0.2095390441780050  0.2156844708134973   T   T   T
  0.5027565519691614  0.2095100208181578  0.7841823319817183   T   T   T
  0.5027890287437963  0.7901050736192278  0.2857497249548716   T   T   T
  0.4978618601125385  0.7904167731960582  0.7137026369216777   T   T   T
 
  0.00000000E+00  0.00000000E+00  0.00000000E+00
  0.00000000E+00  0.00000000E+00  0.00000000E+00
  0.00000000E+00  0.00000000E+00  0.00000000E+00
  0.00000000E+00  0.00000000E+00  0.00000000E+00
  0.00000000E+00  0.00000000E+00  0.00000000E+00
  0.00000000E+00  0.00000000E+00  0.00000000E+00
  0.00000000E+00  0.00000000E+00  0.00000000E+00
  0.00000000E+00  0.00000000E+00  0.00000000E+00
  0.00000000E+00  0.00000000E+00  0.00000000E+00
  0.00000000E+00  0.00000000E+00  0.00000000E+00
  0.00000000E+00  0.00000000E+00  0.00000000E+00
  0.00000000E+00  0.00000000E+00  0.00000000E+00
  0.00000000E+00  0.00000000E+00  0.00000000E+00
  0.00000000E+00  0.00000000E+00  0.00000000E+00
  0.00000000E+00  0.00000000E+00  0.00000000E+00
  0.00000000E+00  0.00000000E+00  0.00000000E+00
  0.00000000E+00  0.00000000E+00  0.00000000E+00
  0.00000000E+00  0.00000000E+00  0.00000000E+00
  0.00000000E+00  0.00000000E+00  0.00000000E+00
  0.00000000E+00  0.00000000E+00  0.00000000E+00
  0.00000000E+00  0.00000000E+00  0.00000000E+00
  0.00000000E+00  0.00000000E+00  0.00000000E+00
  0.00000000E+00  0.00000000E+00  0.00000000E+00
  0.00000000E+00  0.00000000E+00  0.00000000E+00
  0.00000000E+00  0.00000000E+00  0.00000000E+00
  0.00000000E+00  0.00000000E+00  0.00000000E+00
  0.00000000E+00  0.00000000E+00  0.00000000E+00
  0.00000000E+00  0.00000000E+00  0.00000000E+00
  0.00000000E+00  0.00000000E+00  0.00000000E+00
  0.00000000E+00  0.00000000E+00  0.00000000E+00
  0.00000000E+00  0.00000000E+00  0.00000000E+00
  0.00000000E+00  0.00000000E+00  0.00000000E+00
  0.00000000E+00  0.00000000E+00  0.00000000E+00
  0.00000000E+00  0.00000000E+00  0.00000000E+00
  0.00000000E+00  0.00000000E+00  0.00000000E+00
  0.00000000E+00  0.00000000E+00  0.00000000E+00
  0.00000000E+00  0.00000000E+00  0.00000000E+00
  0.00000000E+00  0.00000000E+00  0.00000000E+00
  0.00000000E+00  0.00000000E+00  0.00000000E+00
  0.00000000E+00  0.00000000E+00  0.00000000E+00
