MAPbI3-cubic                            
   1.00000000000000     
    12.6645877547892809    0.0000000000000000    0.0000000000000000
     0.0000000000000000   12.6658479805217130    0.0000000000000000
     0.0000000000000000    0.0000000000000000   12.6715222537481207
   Cs   Pb   Sn   I 
     8     4     4    24
Selective dynamics
Direct
  0.0008997635433445  0.0001696474714269  0.0000000000000000   T   T   T
  0.0018903696766354  0.0323743069864283  0.5000000000000000   T   T   T
  0.9942525393014937  0.5001681044051477  0.0000000000000000   T   T   T
  0.0027936527257830  0.5321008211809817  0.5000000000000000   T   T   T
  0.4972063472742168  0.9678991788190183  0.0000000000000000   T   T   T
  0.5057474606985063  0.9998318955948523  0.5000000000000000   T   T   T
  0.4981096303233646  0.4676256930135716  0.0000000000000000   T   T   T
  0.4991002364566555  0.4998303525285731  0.5000000000000000   T   T   T
  0.2500000000000000  0.2500000000000000  0.2500000000000000   T   T   T
  0.2500000000000000  0.2500000000000000  0.7500000000000000   T   T   T
  0.7500000000000000  0.7500000000000000  0.2500000000000000   T   T   T
  0.7500000000000000  0.7500000000000000  0.7500000000000000   T   T   T
  0.2500000000000000  0.7500000000000000  0.2500000000000000   T   T   T
  0.2500000000000000  0.7500000000000000  0.7500000000000000   T   T   T
  0.7500000000000000  0.2500000000000000  0.2500000000000000   T   T   T
  0.7500000000000000  0.2500000000000000  0.7500000000000000   T   T   T
  0.2159450847677483  0.2847853671545537  0.0000000000000000   T   T   T
  0.2840549302322494  0.2152146478454441  0.5000000000000000   T   T   T
  0.2850448725280223  0.7210974100596670  0.0000000000000000   T   T   T
  0.2149551424719753  0.7789025899403330  0.5000000000000000   T   T   T
  0.7789154675151834  0.2786019110983135  0.0000000000000000   T   T   T
  0.7210845324848166  0.2213981039016842  0.5000000000000000   T   T   T
  0.7089257543813101  0.7160177301076950  0.0000000000000000   T   T   T
  0.7910742456186899  0.7839822698923050  0.5000000000000000   T   T   T
  0.2204625603152184  0.9975136029294273  0.2203917115479387   T   T   T
  0.2204625603152184  0.9975136029294273  0.7796083034520588   T   T   T
  0.2795374546847791  0.5024863970705727  0.2796083034520589   T   T   T
  0.2795374546847791  0.5024863970705727  0.7203916965479412   T   T   T
  0.7799838420373185  0.0025005987650359  0.2206564892358296   T   T   T
  0.7799838420373185  0.0025005987650359  0.7793435257641682   T   T   T
  0.7200161579626815  0.4974994012349643  0.2793435257641680   T   T   T
  0.7200161579626815  0.4974994012349643  0.7206564742358318   T   T   T
  0.9975268935176606  0.2815820638483005  0.2880184267507943   T   T   T
  0.9975268935176606  0.2815820638483005  0.7119815732492055   T   T   T
  0.0025987619262128  0.7182037714661351  0.2187049052069670   T   T   T
  0.0025987619262128  0.7182037714661351  0.7812951097930305   T   T   T
  0.5024731064823394  0.2184179511516973  0.2119815882492033   T   T   T
  0.5024731064823394  0.2184179511516973  0.7880184267507945   T   T   T
  0.4974012380737871  0.7817962285338649  0.2812951097930307   T   T   T
  0.4974012380737871  0.7817962285338649  0.7187048902069695   T   T   T
 
  0.00000000E+00  0.00000000E+00  0.00000000E+00
  0.00000000E+00  0.00000000E+00  0.00000000E+00
  0.00000000E+00  0.00000000E+00  0.00000000E+00
  0.00000000E+00  0.00000000E+00  0.00000000E+00
  0.00000000E+00  0.00000000E+00  0.00000000E+00
  0.00000000E+00  0.00000000E+00  0.00000000E+00
  0.00000000E+00  0.00000000E+00  0.00000000E+00
  0.00000000E+00  0.00000000E+00  0.00000000E+00
  0.00000000E+00  0.00000000E+00  0.00000000E+00
  0.00000000E+00  0.00000000E+00  0.00000000E+00
  0.00000000E+00  0.00000000E+00  0.00000000E+00
  0.00000000E+00  0.00000000E+00  0.00000000E+00
  0.00000000E+00  0.00000000E+00  0.00000000E+00
  0.00000000E+00  0.00000000E+00  0.00000000E+00
  0.00000000E+00  0.00000000E+00  0.00000000E+00
  0.00000000E+00  0.00000000E+00  0.00000000E+00
  0.00000000E+00  0.00000000E+00  0.00000000E+00
  0.00000000E+00  0.00000000E+00  0.00000000E+00
  0.00000000E+00  0.00000000E+00  0.00000000E+00
  0.00000000E+00  0.00000000E+00  0.00000000E+00
  0.00000000E+00  0.00000000E+00  0.00000000E+00
  0.00000000E+00  0.00000000E+00  0.00000000E+00
  0.00000000E+00  0.00000000E+00  0.00000000E+00
  0.00000000E+00  0.00000000E+00  0.00000000E+00
  0.00000000E+00  0.00000000E+00  0.00000000E+00
  0.00000000E+00  0.00000000E+00  0.00000000E+00
  0.00000000E+00  0.00000000E+00  0.00000000E+00
  0.00000000E+00  0.00000000E+00  0.00000000E+00
  0.00000000E+00  0.00000000E+00  0.00000000E+00
  0.00000000E+00  0.00000000E+00  0.00000000E+00
  0.00000000E+00  0.00000000E+00  0.00000000E+00
  0.00000000E+00  0.00000000E+00  0.00000000E+00
  0.00000000E+00  0.00000000E+00  0.00000000E+00
  0.00000000E+00  0.00000000E+00  0.00000000E+00
  0.00000000E+00  0.00000000E+00  0.00000000E+00
  0.00000000E+00  0.00000000E+00  0.00000000E+00
  0.00000000E+00  0.00000000E+00  0.00000000E+00
  0.00000000E+00  0.00000000E+00  0.00000000E+00
  0.00000000E+00  0.00000000E+00  0.00000000E+00
  0.00000000E+00  0.00000000E+00  0.00000000E+00
