MAPbI3-cubic                            
   1.00000000000000     
    12.7273920064353483    0.0000000000000000    0.0000000000000000
     0.0000000000000000   12.7255557418288170    0.0000000000000000
     0.0000000000000000    0.0000000000000000   12.7253615997762513
   Cs   Pb   Sn   I 
     8     6     2    24
Selective dynamics
Direct
  0.9758816721567808  0.9670758742406058  0.0000000000000000   T   T   T
  0.0187595846212603  0.0365418717410937  0.5000000000000000   T   T   T
  0.9635929930978538  0.4890617112235208  0.0000000000000000   T   T   T
  0.0334785448692471  0.5313629326484217  0.5000000000000000   T   T   T
  0.4665214551307528  0.9686370673515783  0.0000000000000000   T   T   T
  0.5364070069021462  0.0109382887764792  0.5000000000000000   T   T   T
  0.4812404153787397  0.4634581282589064  0.0000000000000000   T   T   T
  0.5241183278432192  0.5329241257593942  0.5000000000000000   T   T   T
  0.2500000000000000  0.2500000000000000  0.2500000000000000   T   T   T
  0.2500000000000000  0.2500000000000000  0.7500000000000000   T   T   T
  0.2500000000000000  0.7500000000000000  0.2500000000000000   T   T   T
  0.2500000000000000  0.7500000000000000  0.7500000000000000   T   T   T
  0.7500000000000000  0.2500000000000000  0.2500000000000000   T   T   T
  0.7500000000000000  0.2500000000000000  0.7500000000000000   T   T   T
  0.7500000000000000  0.7500000000000000  0.2500000000000000   T   T   T
  0.7500000000000000  0.7500000000000000  0.7500000000000000   T   T   T
  0.2140918562645853  0.2984843997166364  0.0000000000000000   T   T   T
  0.2859081587354124  0.2015156152833686  0.5000000000000000   T   T   T
  0.2838650597486000  0.7093757643352004  0.0000000000000000   T   T   T
  0.2161349552513979  0.7906242356647996  0.5000000000000000   T   T   T
  0.7986105459086557  0.2260409478038917  0.0000000000000000   T   T   T
  0.7013894540913442  0.2739590671961061  0.5000000000000000   T   T   T
  0.7274326789671467  0.7799502722614350  0.0000000000000000   T   T   T
  0.7725673210328533  0.7200497277385650  0.5000000000000000   T   T   T
  0.2089539349314843 -0.0002650618013375  0.2068401993280919   T   T   T
  0.2089539349314843 -0.0002650618013375  0.7931598156719055   T   T   T
  0.2910460800685133  0.5002650618013376  0.2931598156719058   T   T   T
  0.2910460800685133  0.5002650618013376  0.7068401843280945   T   T   T
  0.7912383533394899  0.9973492786015549  0.2814672421429472   T   T   T
  0.7912383533394899  0.9973492786015549  0.7185327728570504   T   T   T
  0.7087616466605101  0.5026507213984451  0.2185327728570507   T   T   T
  0.7087616466605101  0.5026507213984451  0.7814672271429496   T   T   T
 -0.0001961871161541  0.2918060387844753  0.2949865047332532   T   T   T
 -0.0001961871161541  0.2918060387844753  0.7050134952667471   T   T   T
  0.9973694979634333  0.7094711367815419  0.2222506268664116   T   T   T
  0.9973694979634333  0.7094711367815419  0.7777493881335855   T   T   T
  0.5001961871161544  0.2081939762155224  0.2050135102667444   T   T   T
  0.5001961871161544  0.2081939762155224  0.7949865047332529   T   T   T
  0.5026305020365667  0.7905288632184581  0.2777493881335863   T   T   T
  0.5026305020365667  0.7905288632184581  0.7222506118664145   T   T   T
 
  0.00000000E+00  0.00000000E+00  0.00000000E+00
  0.00000000E+00  0.00000000E+00  0.00000000E+00
  0.00000000E+00  0.00000000E+00  0.00000000E+00
  0.00000000E+00  0.00000000E+00  0.00000000E+00
  0.00000000E+00  0.00000000E+00  0.00000000E+00
  0.00000000E+00  0.00000000E+00  0.00000000E+00
  0.00000000E+00  0.00000000E+00  0.00000000E+00
  0.00000000E+00  0.00000000E+00  0.00000000E+00
  0.00000000E+00  0.00000000E+00  0.00000000E+00
  0.00000000E+00  0.00000000E+00  0.00000000E+00
  0.00000000E+00  0.00000000E+00  0.00000000E+00
  0.00000000E+00  0.00000000E+00  0.00000000E+00
  0.00000000E+00  0.00000000E+00  0.00000000E+00
  0.00000000E+00  0.00000000E+00  0.00000000E+00
  0.00000000E+00  0.00000000E+00  0.00000000E+00
  0.00000000E+00  0.00000000E+00  0.00000000E+00
  0.00000000E+00  0.00000000E+00  0.00000000E+00
  0.00000000E+00  0.00000000E+00  0.00000000E+00
  0.00000000E+00  0.00000000E+00  0.00000000E+00
  0.00000000E+00  0.00000000E+00  0.00000000E+00
  0.00000000E+00  0.00000000E+00  0.00000000E+00
  0.00000000E+00  0.00000000E+00  0.00000000E+00
  0.00000000E+00  0.00000000E+00  0.00000000E+00
  0.00000000E+00  0.00000000E+00  0.00000000E+00
  0.00000000E+00  0.00000000E+00  0.00000000E+00
  0.00000000E+00  0.00000000E+00  0.00000000E+00
  0.00000000E+00  0.00000000E+00  0.00000000E+00
  0.00000000E+00  0.00000000E+00  0.00000000E+00
  0.00000000E+00  0.00000000E+00  0.00000000E+00
  0.00000000E+00  0.00000000E+00  0.00000000E+00
  0.00000000E+00  0.00000000E+00  0.00000000E+00
  0.00000000E+00  0.00000000E+00  0.00000000E+00
  0.00000000E+00  0.00000000E+00  0.00000000E+00
  0.00000000E+00  0.00000000E+00  0.00000000E+00
  0.00000000E+00  0.00000000E+00  0.00000000E+00
  0.00000000E+00  0.00000000E+00  0.00000000E+00
  0.00000000E+00  0.00000000E+00  0.00000000E+00
  0.00000000E+00  0.00000000E+00  0.00000000E+00
  0.00000000E+00  0.00000000E+00  0.00000000E+00
  0.00000000E+00  0.00000000E+00  0.00000000E+00
