MAPbI3-cubic                            
   1.00000000000000     
    12.6954465593846919    0.0000000000000000    0.0000000000000000
     0.0000000000000000   12.6943750254011842    0.0000000000000000
     0.0000000000000000    0.0000000000000000   12.6954008488707117
   Cs   Pb   Sn   I 
     8     5     3    24
Selective dynamics
Direct
  0.9978788451415966  0.9983571469374717  0.9981880723820044   T   T   T
  0.9989662969613801  0.0321003808260704  0.4991835939776413   T   T   T
  0.9968819026305541  0.5019639175733525  0.9950093767192800   T   T   T
  0.9999095514604590  0.5335373935356107  0.5005128061546862   T   T   T
  0.5000904485395410  0.9664626064643893  0.9994871938453138   T   T   T
  0.5031180973694459  0.9980360824266475  0.5049906232807200   T   T   T
  0.5010337030386199  0.4678996191739296  0.0008164060223588   T   T   T
  0.5021211548584034  0.5016428530625283  0.5018119276179956   T   T   T
  0.2500000000000000  0.2500000000000000  0.2500000000000000   T   T   T
  0.2500000000000000  0.2500000000000000  0.7500000000000000   T   T   T
  0.2500000000000000  0.7500000000000000  0.2500000000000000   T   T   T
  0.7500000000000000  0.2500000000000000  0.7500000000000000   T   T   T
  0.7500000000000000  0.7500000000000000  0.2500000000000000   T   T   T
  0.7500000000000000  0.7500000000000000  0.7500000000000000   T   T   T
  0.2500000000000000  0.7500000000000000  0.7500000000000000   T   T   T
  0.7500000000000000  0.2500000000000000  0.2500000000000000   T   T   T
  0.2160842985698009  0.2867456561121861  0.9998721793257581   T   T   T
  0.2839157164301966  0.2132543588878115  0.5001278206742419   T   T   T
  0.2871538813011640  0.7172390096256611  0.9972703461831919   T   T   T
  0.2128461336988337  0.7827609903743389  0.5027296538168081   T   T   T
  0.7824317181566369  0.2814669210951442  0.0023004322716596   T   T   T
  0.7175682818433631  0.2185330939048535  0.4976995677283405   T   T   T
  0.7137220750183620  0.7188184100317296  0.9973129783997996   T   T   T
  0.7862779249816380  0.7811815899682704  0.5026870216002004   T   T   T
  0.2161773502275735  0.9999091005271921  0.2163806504477700   T   T   T
  0.2208011235605440  0.9973418194045280  0.7813923122093324   T   T   T
  0.2838226647724241  0.5000908994728079  0.2836193645522277   T   T   T
  0.2791988914394536  0.5026581805954720  0.7186076877906676   T   T   T
  0.7817939835626219  0.0023622547097373  0.2212525889825775   T   T   T
  0.7784127660004918  0.9973874804508631  0.7785801558854998   T   T   T
  0.7182060164373781  0.4976377452902626  0.2787474260174201   T   T   T
  0.7215872339995082  0.5026125195491369  0.7214198441145002   T   T   T
  0.9973388939388635  0.2824576210735441  0.2893819761644403   T   T   T
  0.9998507847981838  0.2831919284098834  0.7083156289196839   T   T   T
  0.9998766678760668  0.7139196399000109  0.2182524766436486   T   T   T
  0.9998519704057235  0.7214609165686885  0.7784662795412196   T   T   T
  0.5026611060611365  0.2175423939264535  0.2106180388355574   T   T   T
  0.5001492152018162  0.2168080865901142  0.7916843710803161   T   T   T
  0.5001233321239332  0.7860803600999891  0.2817475383563491   T   T   T
  0.5001480295942765  0.7785390834313115  0.7215337204587804   T   T   T
 
  0.00000000E+00  0.00000000E+00  0.00000000E+00
  0.00000000E+00  0.00000000E+00  0.00000000E+00
  0.00000000E+00  0.00000000E+00  0.00000000E+00
  0.00000000E+00  0.00000000E+00  0.00000000E+00
  0.00000000E+00  0.00000000E+00  0.00000000E+00
  0.00000000E+00  0.00000000E+00  0.00000000E+00
  0.00000000E+00  0.00000000E+00  0.00000000E+00
  0.00000000E+00  0.00000000E+00  0.00000000E+00
  0.00000000E+00  0.00000000E+00  0.00000000E+00
  0.00000000E+00  0.00000000E+00  0.00000000E+00
  0.00000000E+00  0.00000000E+00  0.00000000E+00
  0.00000000E+00  0.00000000E+00  0.00000000E+00
  0.00000000E+00  0.00000000E+00  0.00000000E+00
  0.00000000E+00  0.00000000E+00  0.00000000E+00
  0.00000000E+00  0.00000000E+00  0.00000000E+00
  0.00000000E+00  0.00000000E+00  0.00000000E+00
  0.00000000E+00  0.00000000E+00  0.00000000E+00
  0.00000000E+00  0.00000000E+00  0.00000000E+00
  0.00000000E+00  0.00000000E+00  0.00000000E+00
  0.00000000E+00  0.00000000E+00  0.00000000E+00
  0.00000000E+00  0.00000000E+00  0.00000000E+00
  0.00000000E+00  0.00000000E+00  0.00000000E+00
  0.00000000E+00  0.00000000E+00  0.00000000E+00
  0.00000000E+00  0.00000000E+00  0.00000000E+00
  0.00000000E+00  0.00000000E+00  0.00000000E+00
  0.00000000E+00  0.00000000E+00  0.00000000E+00
  0.00000000E+00  0.00000000E+00  0.00000000E+00
  0.00000000E+00  0.00000000E+00  0.00000000E+00
  0.00000000E+00  0.00000000E+00  0.00000000E+00
  0.00000000E+00  0.00000000E+00  0.00000000E+00
  0.00000000E+00  0.00000000E+00  0.00000000E+00
  0.00000000E+00  0.00000000E+00  0.00000000E+00
  0.00000000E+00  0.00000000E+00  0.00000000E+00
  0.00000000E+00  0.00000000E+00  0.00000000E+00
  0.00000000E+00  0.00000000E+00  0.00000000E+00
  0.00000000E+00  0.00000000E+00  0.00000000E+00
  0.00000000E+00  0.00000000E+00  0.00000000E+00
  0.00000000E+00  0.00000000E+00  0.00000000E+00
  0.00000000E+00  0.00000000E+00  0.00000000E+00
  0.00000000E+00  0.00000000E+00  0.00000000E+00
