MAPbI3-cubic                            
   1.00000000000000     
    12.6404844025844145    0.0000000000000000    0.0000000000000000
     0.0000000000000000   12.6410018681250591    0.0000000000000000
     0.0000000000000000    0.0000000000000000   12.6414881907228978
   Cs   Pb   Sn   I 
     8     3     5    24
Selective dynamics
Direct
  0.9867673740079048  0.0021954279633796  0.0145032889063897   T   T   T
  0.0007095514472355  0.0274253257511905  0.5162922464621712   T   T   T
  0.9898584219791587  0.5061806651713984  0.0119448695740656   T   T   T
  0.0125128276464131  0.5308824494453627  0.4962607348727631   T   T   T
  0.4874871723535870  0.9691175505546373  0.0037392651272372   T   T   T
  0.5101415780208413  0.9938193348286016  0.4880551304259343   T   T   T
  0.4992904485527646  0.4725746742488095 -0.0162922464621710   T   T   T
  0.5132326259920952  0.4978045720366206  0.4854967110936105   T   T   T
  0.2500000000000000  0.2500000000000000  0.2500000000000000   T   T   T
  0.2500000000000000  0.7500000000000000  0.7500000000000000   T   T   T
  0.7500000000000000  0.2500000000000000  0.7500000000000000   T   T   T
  0.7500000000000000  0.7500000000000000  0.2500000000000000   T   T   T
  0.7500000000000000  0.7500000000000000  0.7500000000000000   T   T   T
  0.2500000000000000  0.2500000000000000  0.7500000000000000   T   T   T
  0.2500000000000000  0.7500000000000000  0.2500000000000000   T   T   T
  0.7500000000000000  0.2500000000000000  0.2500000000000000   T   T   T
  0.2165580623785161  0.2932839314065531  0.9974861534380829   T   T   T
  0.2834419526214813  0.2067160835934446  0.5025138465619171   T   T   T
  0.2821034104960002  0.7074938029466722  0.0026544900067842   T   T   T
  0.2178966045039973  0.7925061970533278  0.4973455099932160   T   T   T
  0.7925147769536226  0.2643412251453879  0.0024005081191312   T   T   T
  0.7074852230463774  0.2356587898546100  0.4975994918808685   T   T   T
  0.7210708468945861  0.7370750820163234  0.0002148024594194   T   T   T
  0.7789291531054139  0.7629249179836766  0.4997851975405805   T   T   T
  0.2393943146790611  0.9972497747395946  0.2059652025787869   T   T   T
  0.2073949561249618  0.0023800510112651  0.7897258372218877   T   T   T
  0.2606057003209366  0.5027502252604054  0.2940348124212107   T   T   T
  0.2926050588750360  0.4976199489887350  0.7102741627781123   T   T   T
  0.7587188455713160 -0.0002614902318722  0.2394290542242429   T   T   T
  0.7952607898982674  0.9975598688823224  0.7615649311475978   T   T   T
  0.7412811544286840  0.5002614902318722  0.2605709607757549   T   T   T
  0.7047392101017326  0.5024401311176776  0.7384350688524022   T   T   T
  0.9974455705622787  0.2619764669788918  0.2935996573875022   T   T   T
  0.0022866514157735  0.2906909914242911  0.7072657809747546   T   T   T
 -0.0000066887353124  0.7389852982672726  0.2216241474671301   T   T   T
  0.9975602978947442  0.7044324948100237  0.7721716638567365   T   T   T
  0.5025544294377213  0.2380235480211060  0.2064003576124953   T   T   T
  0.4977133485842266  0.2093090235757065  0.7927342190252454   T   T   T
  0.5000066887353124  0.7610147017327274  0.2783758675328678   T   T   T
  0.5024397021052558  0.7955675051899763  0.7278283361432635   T   T   T
 
  0.00000000E+00  0.00000000E+00  0.00000000E+00
  0.00000000E+00  0.00000000E+00  0.00000000E+00
  0.00000000E+00  0.00000000E+00  0.00000000E+00
  0.00000000E+00  0.00000000E+00  0.00000000E+00
  0.00000000E+00  0.00000000E+00  0.00000000E+00
  0.00000000E+00  0.00000000E+00  0.00000000E+00
  0.00000000E+00  0.00000000E+00  0.00000000E+00
  0.00000000E+00  0.00000000E+00  0.00000000E+00
  0.00000000E+00  0.00000000E+00  0.00000000E+00
  0.00000000E+00  0.00000000E+00  0.00000000E+00
  0.00000000E+00  0.00000000E+00  0.00000000E+00
  0.00000000E+00  0.00000000E+00  0.00000000E+00
  0.00000000E+00  0.00000000E+00  0.00000000E+00
  0.00000000E+00  0.00000000E+00  0.00000000E+00
  0.00000000E+00  0.00000000E+00  0.00000000E+00
  0.00000000E+00  0.00000000E+00  0.00000000E+00
  0.00000000E+00  0.00000000E+00  0.00000000E+00
  0.00000000E+00  0.00000000E+00  0.00000000E+00
  0.00000000E+00  0.00000000E+00  0.00000000E+00
  0.00000000E+00  0.00000000E+00  0.00000000E+00
  0.00000000E+00  0.00000000E+00  0.00000000E+00
  0.00000000E+00  0.00000000E+00  0.00000000E+00
  0.00000000E+00  0.00000000E+00  0.00000000E+00
  0.00000000E+00  0.00000000E+00  0.00000000E+00
  0.00000000E+00  0.00000000E+00  0.00000000E+00
  0.00000000E+00  0.00000000E+00  0.00000000E+00
  0.00000000E+00  0.00000000E+00  0.00000000E+00
  0.00000000E+00  0.00000000E+00  0.00000000E+00
  0.00000000E+00  0.00000000E+00  0.00000000E+00
  0.00000000E+00  0.00000000E+00  0.00000000E+00
  0.00000000E+00  0.00000000E+00  0.00000000E+00
  0.00000000E+00  0.00000000E+00  0.00000000E+00
  0.00000000E+00  0.00000000E+00  0.00000000E+00
  0.00000000E+00  0.00000000E+00  0.00000000E+00
  0.00000000E+00  0.00000000E+00  0.00000000E+00
  0.00000000E+00  0.00000000E+00  0.00000000E+00
  0.00000000E+00  0.00000000E+00  0.00000000E+00
  0.00000000E+00  0.00000000E+00  0.00000000E+00
  0.00000000E+00  0.00000000E+00  0.00000000E+00
  0.00000000E+00  0.00000000E+00  0.00000000E+00
