MAPbI3-cubic                            
   1.00000000000000     
    12.6117589277138258    0.0000000000000000    0.0000000000000000
     0.0000000000000000   12.6125926751480240    0.0000000000000000
     0.0000000000000000    0.0000000000000000   12.6133940108764087
   Cs   Pb   Sn   I 
     8     2     6    24
Selective dynamics
Direct
  0.0002317060831871  0.0000391325259523  0.9997781761987614   T   T   T
  0.0002766590524647  0.0308404747263955  0.5011100210476731   T   T   T
  0.9978472851764425  0.5001757136344349  0.0022477271126391   T   T   T
  0.0011144363890909  0.5308296251465632  0.5002215244518351   T   T   T
  0.4989045537387815  0.9691160559410482 -0.0003192540101821   T   T   T
  0.5021899605129660 -0.0001585244449669  0.4978768635928834   T   T   T
  0.4997526391318733  0.4691756697397890  0.9988994372274330   T   T   T
  0.4998154937608107  0.4999449564827294  0.5001988178537931   T   T   T
  0.2498688872834805  0.2499401234632109  0.2500205508089906   T   T   T
  0.7499595944456181  0.7500967052055815  0.7499641885840911   T   T   T
  0.2500482021407598  0.2501384862539957  0.7500099177336412   T   T   T
  0.2500870710097968  0.7499465684302284  0.2501200890927128   T   T   T
  0.2499067633731430  0.7498672806397600  0.7501356241664476   T   T   T
  0.7498007589016209  0.2498337811087493  0.2497906831448671   T   T   T
  0.7500515011207363  0.2501953568423074  0.7498654568716103   T   T   T
  0.7499839828600974  0.7497919861358804  0.2499695662688119   T   T   T
  0.2189029756574060  0.2814401831475967  0.9974011419565685   T   T   T
  0.2811311636394164  0.2186030631961851  0.5026090344314640   T   T   T
  0.2845449538837939  0.7206814991606932 -0.0000270712167412   T   T   T
  0.2154866146321513  0.7792763619732759  0.4999792352629879   T   T   T
  0.7789707449887564  0.2788422055910464 -0.0000768851201387   T   T   T
  0.7210454854430037  0.2212049249538194  0.5001168948963117   T   T   T
  0.7126741333888580  0.7182834267894144  0.0025334917244346   T   T   T
  0.7873606337311757  0.7816937425887842  0.4974774055010684   T   T   T
  0.2211380919262356  0.9973115002143925  0.2206701580037534   T   T   T
  0.2224877006213948 -0.0000193762012292  0.7775561079432939   T   T   T
  0.2789023229896374  0.5026894767374253  0.2793611024822725   T   T   T
  0.2775698351848480  0.5000062719413315  0.7224325501671591   T   T   T
  0.7776094207119578  0.0000805825573814  0.2223998976556792   T   T   T
  0.7793370193593412  0.0026916233804873  0.7788993178235964   T   T   T
  0.7224061654580238  0.5000674953951625  0.2776485056410983   T   T   T
  0.7206695370005232  0.4973544341908108  0.7210998194871581   T   T   T
  0.9974745694687540  0.2816995798247345  0.2873806172573048   T   T   T
 -0.0000286050052970  0.2793302957444822  0.7154240083398923   T   T   T
  0.0000835360800059  0.7211691590025531  0.2210710416351966   T   T   T
  0.0026144849106406  0.7185465582720315  0.7811327378234891   T   T   T
  0.5025301865632846  0.2182946425704144  0.2125942043644972   T   T   T
  0.4999886970245351  0.2207471378025599  0.7845724612873459   T   T   T
  0.4998670475432638  0.7788110201215422  0.2789750894415316   T   T   T
  0.4973938498174111  0.7814208592134361  0.7188798030647581   T   T   T
 
  0.00000000E+00  0.00000000E+00  0.00000000E+00
  0.00000000E+00  0.00000000E+00  0.00000000E+00
  0.00000000E+00  0.00000000E+00  0.00000000E+00
  0.00000000E+00  0.00000000E+00  0.00000000E+00
  0.00000000E+00  0.00000000E+00  0.00000000E+00
  0.00000000E+00  0.00000000E+00  0.00000000E+00
  0.00000000E+00  0.00000000E+00  0.00000000E+00
  0.00000000E+00  0.00000000E+00  0.00000000E+00
  0.00000000E+00  0.00000000E+00  0.00000000E+00
  0.00000000E+00  0.00000000E+00  0.00000000E+00
  0.00000000E+00  0.00000000E+00  0.00000000E+00
  0.00000000E+00  0.00000000E+00  0.00000000E+00
  0.00000000E+00  0.00000000E+00  0.00000000E+00
  0.00000000E+00  0.00000000E+00  0.00000000E+00
  0.00000000E+00  0.00000000E+00  0.00000000E+00
  0.00000000E+00  0.00000000E+00  0.00000000E+00
  0.00000000E+00  0.00000000E+00  0.00000000E+00
  0.00000000E+00  0.00000000E+00  0.00000000E+00
  0.00000000E+00  0.00000000E+00  0.00000000E+00
  0.00000000E+00  0.00000000E+00  0.00000000E+00
  0.00000000E+00  0.00000000E+00  0.00000000E+00
  0.00000000E+00  0.00000000E+00  0.00000000E+00
  0.00000000E+00  0.00000000E+00  0.00000000E+00
  0.00000000E+00  0.00000000E+00  0.00000000E+00
  0.00000000E+00  0.00000000E+00  0.00000000E+00
  0.00000000E+00  0.00000000E+00  0.00000000E+00
  0.00000000E+00  0.00000000E+00  0.00000000E+00
  0.00000000E+00  0.00000000E+00  0.00000000E+00
  0.00000000E+00  0.00000000E+00  0.00000000E+00
  0.00000000E+00  0.00000000E+00  0.00000000E+00
  0.00000000E+00  0.00000000E+00  0.00000000E+00
  0.00000000E+00  0.00000000E+00  0.00000000E+00
  0.00000000E+00  0.00000000E+00  0.00000000E+00
  0.00000000E+00  0.00000000E+00  0.00000000E+00
  0.00000000E+00  0.00000000E+00  0.00000000E+00
  0.00000000E+00  0.00000000E+00  0.00000000E+00
  0.00000000E+00  0.00000000E+00  0.00000000E+00
  0.00000000E+00  0.00000000E+00  0.00000000E+00
  0.00000000E+00  0.00000000E+00  0.00000000E+00
  0.00000000E+00  0.00000000E+00  0.00000000E+00
