MAPbI3-cubic                            
   1.00000000000000     
    12.5854094931046667    0.0000000000000000    0.0000000000000000
     0.0000000000000000   12.5862407796320799    0.0000000000000000
     0.0000000000000000    0.0000000000000000   12.5870123688816680
   Cs   Pb   Sn   I 
     8     1     7    24
Selective dynamics
Direct
  0.9877216834966007  0.9994852325759739  0.9886963844026601   T   T   T
  0.0009979904114578  0.0237533698411142  0.4886148190115575   T   T   T
  0.9869628964437388  0.5060520077643952  0.9925234240429993   T   T   T
  0.0125959879195167  0.5286460481267069  0.5045305581294354   T   T   T
  0.4874040120804835  0.9713539518732931  0.9954694418705646   T   T   T
  0.5130371035562612  0.9939479922356048  0.5074765759570007   T   T   T
  0.4990020095885423  0.4762466301588858  0.0113851809884425   T   T   T
  0.5122783165033993  0.5005147674240261  0.5113036155973399   T   T   T
  0.2500000000000000  0.2500000000000000  0.2500000000000000   T   T   T
  0.2500000000000000  0.2500000000000000  0.7500000000000000   T   T   T
  0.2500000000000000  0.7500000000000000  0.2500000000000000   T   T   T
  0.2500000000000000  0.7500000000000000  0.7500000000000000   T   T   T
  0.7500000000000000  0.2500000000000000  0.2500000000000000   T   T   T
  0.7500000000000000  0.2500000000000000  0.7500000000000000   T   T   T
  0.7500000000000000  0.7500000000000000  0.2500000000000000   T   T   T
  0.7500000000000000  0.7500000000000000  0.7500000000000000   T   T   T
  0.2139438373259082  0.2912613100469038  0.9974178608668947   T   T   T
  0.2860561776740895  0.2087387049530940  0.5025821391331053   T   T   T
  0.2788455069562820  0.7119884603807255 -0.0002187962912230   T   T   T
  0.2211545080437157  0.7880115396192745  0.5002187962912230   T   T   T
  0.7900570535340500  0.2614639160302916 -0.0000139477965129   T   T   T
  0.7099429464659500  0.2385360989697058  0.5000139477965130   T   T   T
  0.7224804363819515  0.7391143629773955 -0.0000448423319594   T   T   T
  0.7775195636180485  0.7608856370226045  0.5000448423319592   T   T   T
  0.2112275149551390  0.9974696123361139  0.2114696584812741   T   T   T
  0.2370212473598889 -0.0001931729231159  0.7892157784801784   T   T   T
  0.2887725000448587  0.5025303876638861  0.2885303565187234   T   T   T
  0.2629787676401087  0.5001931729231156  0.7107842215198216   T   T   T
  0.7889225952523889  0.0000051815384694  0.2413648579724328   T   T   T
  0.7611671849546615 -0.0001247977150824  0.7587288410488439   T   T   T
  0.7110774047476111  0.4999948184615304  0.2586351570275647   T   T   T
  0.7388328150453385  0.5001247977150826  0.7412711589511561   T   T   T
  0.9972889940190290  0.2874149308278079  0.2942161248025951   T   T   T
 -0.0001758325085531  0.2622818251963777  0.7092103777531049   T   T   T
  0.0000370660281620  0.7119287886990785  0.2285407325782448   T   T   T
  0.0000963731320708  0.7367466356733958  0.7770421351922482   T   T   T
  0.5027110059809710  0.2125850841721896  0.2057838901974027   T   T   T
  0.5001758325085532  0.2377181898036272  0.7907896222468951   T   T   T
  0.4999629339718380  0.7880712113009215  0.2714592824217528   T   T   T
  0.4999036268679294  0.7632533643266042  0.7229578648077518   T   T   T
 
  0.00000000E+00  0.00000000E+00  0.00000000E+00
  0.00000000E+00  0.00000000E+00  0.00000000E+00
  0.00000000E+00  0.00000000E+00  0.00000000E+00
  0.00000000E+00  0.00000000E+00  0.00000000E+00
  0.00000000E+00  0.00000000E+00  0.00000000E+00
  0.00000000E+00  0.00000000E+00  0.00000000E+00
  0.00000000E+00  0.00000000E+00  0.00000000E+00
  0.00000000E+00  0.00000000E+00  0.00000000E+00
  0.00000000E+00  0.00000000E+00  0.00000000E+00
  0.00000000E+00  0.00000000E+00  0.00000000E+00
  0.00000000E+00  0.00000000E+00  0.00000000E+00
  0.00000000E+00  0.00000000E+00  0.00000000E+00
  0.00000000E+00  0.00000000E+00  0.00000000E+00
  0.00000000E+00  0.00000000E+00  0.00000000E+00
  0.00000000E+00  0.00000000E+00  0.00000000E+00
  0.00000000E+00  0.00000000E+00  0.00000000E+00
  0.00000000E+00  0.00000000E+00  0.00000000E+00
  0.00000000E+00  0.00000000E+00  0.00000000E+00
  0.00000000E+00  0.00000000E+00  0.00000000E+00
  0.00000000E+00  0.00000000E+00  0.00000000E+00
  0.00000000E+00  0.00000000E+00  0.00000000E+00
  0.00000000E+00  0.00000000E+00  0.00000000E+00
  0.00000000E+00  0.00000000E+00  0.00000000E+00
  0.00000000E+00  0.00000000E+00  0.00000000E+00
  0.00000000E+00  0.00000000E+00  0.00000000E+00
  0.00000000E+00  0.00000000E+00  0.00000000E+00
  0.00000000E+00  0.00000000E+00  0.00000000E+00
  0.00000000E+00  0.00000000E+00  0.00000000E+00
  0.00000000E+00  0.00000000E+00  0.00000000E+00
  0.00000000E+00  0.00000000E+00  0.00000000E+00
  0.00000000E+00  0.00000000E+00  0.00000000E+00
  0.00000000E+00  0.00000000E+00  0.00000000E+00
  0.00000000E+00  0.00000000E+00  0.00000000E+00
  0.00000000E+00  0.00000000E+00  0.00000000E+00
  0.00000000E+00  0.00000000E+00  0.00000000E+00
  0.00000000E+00  0.00000000E+00  0.00000000E+00
  0.00000000E+00  0.00000000E+00  0.00000000E+00
  0.00000000E+00  0.00000000E+00  0.00000000E+00
  0.00000000E+00  0.00000000E+00  0.00000000E+00
  0.00000000E+00  0.00000000E+00  0.00000000E+00
