MAPbI3-cubic                            
   1.00000000000000     
    12.7809166179613278    0.0000000000000000    0.0000000000000000
     0.0000000000000000   12.7769185723448349    0.0000000000000000
     0.0000000000000000    0.0000000000000000   12.7732148373530610
   Cs   Pb   I 
     8     8    24
Selective dynamics
Direct
  0.0000000000000000  0.9999958888360894  0.0000000000000000   T   T   T
  0.0000000000000000  0.0318958107747989  0.5000000000000000   T   T   T
  0.0000000000000000  0.4999405724915107  0.0000000000000000   T   T   T
  0.0000000000000000  0.5318965337460924  0.5000000000000000   T   T   T
  0.5000000000000000  0.9681034662539076  0.0000000000000000   T   T   T
  0.5000000000000000  0.0000594275084893  0.5000000000000000   T   T   T
  0.5000000000000000  0.4681041892252011  0.0000000000000000   T   T   T
  0.5000000000000000  0.5000041111639106  0.5000000000000000   T   T   T
  0.2500000000000000  0.2500000000000000  0.2500000000000000   T   T   T
  0.2500000000000000  0.2500000000000000  0.7500000000000000   T   T   T
  0.2500000000000000  0.7500000000000000  0.2500000000000000   T   T   T
  0.2500000000000000  0.7500000000000000  0.7500000000000000   T   T   T
  0.7500000000000000  0.2500000000000000  0.2500000000000000   T   T   T
  0.7500000000000000  0.2500000000000000  0.7500000000000000   T   T   T
  0.7500000000000000  0.7500000000000000  0.2500000000000000   T   T   T
  0.7500000000000000  0.7500000000000000  0.7500000000000000   T   T   T
  0.2183590726609665  0.2866127786074060  0.0000000000000000   T   T   T
  0.2816409423390311  0.2133872363925917  0.5000000000000000   T   T   T
  0.2903381830487817  0.7160240194921741  0.0000000000000000   T   T   T
  0.2096618319512160  0.7839759805078259  0.5000000000000000   T   T   T
  0.7816409423390311  0.2866127786074060  0.0000000000000000   T   T   T
  0.7183590576609689  0.2133872363925917  0.5000000000000000   T   T   T
  0.7096618169512183  0.7160240194921741  0.0000000000000000   T   T   T
  0.7903381830487817  0.7839759805078259  0.5000000000000000   T   T   T
  0.2170209082234607  0.9999992507923992  0.2170146223490121   T   T   T
  0.2170209082234607  0.9999992507923992  0.7829853926509855   T   T   T
  0.2829791067765370  0.5000007492076008  0.2829853926509855   T   T   T
  0.2829791067765370  0.5000007492076008  0.7170146073490145   T   T   T
  0.7829791067765370  0.9999992507923992  0.2170146223490121   T   T   T
  0.7829791067765370  0.9999992507923992  0.7829853926509855   T   T   T
  0.7170208932234630  0.5000007492076008  0.2829853926509855   T   T   T
  0.7170208932234630  0.5000007492076008  0.7170146073490145   T   T   T
  0.0000000000000000  0.2839116579088667  0.2902598857243532   T   T   T
  0.0000000000000000  0.2839116579088667  0.7097401142756468   T   T   T
  0.0000000000000000  0.7134911342958858  0.2184307054064760   T   T   T
  0.0000000000000000  0.7134911342958858  0.7815693095935217   T   T   T
  0.5000000000000000  0.2160883570911309  0.2097401292756444   T   T   T
  0.5000000000000000  0.2160883570911309  0.7902598857243532   T   T   T
  0.5000000000000000  0.7865088657041142  0.2815693095935217   T   T   T
  0.5000000000000000  0.7865088657041142  0.7184306904064783   T   T   T
 
  0.00000000E+00  0.00000000E+00  0.00000000E+00
  0.00000000E+00  0.00000000E+00  0.00000000E+00
  0.00000000E+00  0.00000000E+00  0.00000000E+00
  0.00000000E+00  0.00000000E+00  0.00000000E+00
  0.00000000E+00  0.00000000E+00  0.00000000E+00
  0.00000000E+00  0.00000000E+00  0.00000000E+00
  0.00000000E+00  0.00000000E+00  0.00000000E+00
  0.00000000E+00  0.00000000E+00  0.00000000E+00
  0.00000000E+00  0.00000000E+00  0.00000000E+00
  0.00000000E+00  0.00000000E+00  0.00000000E+00
  0.00000000E+00  0.00000000E+00  0.00000000E+00
  0.00000000E+00  0.00000000E+00  0.00000000E+00
  0.00000000E+00  0.00000000E+00  0.00000000E+00
  0.00000000E+00  0.00000000E+00  0.00000000E+00
  0.00000000E+00  0.00000000E+00  0.00000000E+00
  0.00000000E+00  0.00000000E+00  0.00000000E+00
  0.00000000E+00  0.00000000E+00  0.00000000E+00
  0.00000000E+00  0.00000000E+00  0.00000000E+00
  0.00000000E+00  0.00000000E+00  0.00000000E+00
  0.00000000E+00  0.00000000E+00  0.00000000E+00
  0.00000000E+00  0.00000000E+00  0.00000000E+00
  0.00000000E+00  0.00000000E+00  0.00000000E+00
  0.00000000E+00  0.00000000E+00  0.00000000E+00
  0.00000000E+00  0.00000000E+00  0.00000000E+00
  0.00000000E+00  0.00000000E+00  0.00000000E+00
  0.00000000E+00  0.00000000E+00  0.00000000E+00
  0.00000000E+00  0.00000000E+00  0.00000000E+00
  0.00000000E+00  0.00000000E+00  0.00000000E+00
  0.00000000E+00  0.00000000E+00  0.00000000E+00
  0.00000000E+00  0.00000000E+00  0.00000000E+00
  0.00000000E+00  0.00000000E+00  0.00000000E+00
  0.00000000E+00  0.00000000E+00  0.00000000E+00
  0.00000000E+00  0.00000000E+00  0.00000000E+00
  0.00000000E+00  0.00000000E+00  0.00000000E+00
  0.00000000E+00  0.00000000E+00  0.00000000E+00
  0.00000000E+00  0.00000000E+00  0.00000000E+00
  0.00000000E+00  0.00000000E+00  0.00000000E+00
  0.00000000E+00  0.00000000E+00  0.00000000E+00
  0.00000000E+00  0.00000000E+00  0.00000000E+00
  0.00000000E+00  0.00000000E+00  0.00000000E+00
