MAPbI3-cubic                            
   1.00000000000000     
    12.6117589277138258    0.0000000000000000    0.0000000000000000
     0.0000000000000000   12.6125926751480240    0.0000000000000000
     0.0000000000000000    0.0000000000000000   12.6133940108764087
   Cs   Pb   Sn   I 
     8     2     6    24
Selective dynamics
Direct
  0.0003904312296840  0.9804114097986402  0.9999134280595536   T   T   T
  0.9996095687703230  0.0195885902013527  0.4999134280595607   T   T   T
  0.9986864007678607  0.4803407756494767  0.0010684025025395   T   T   T
  0.0013135992321393  0.5196592243505234  0.5010684025025395   T   T   T
  0.4986866243588451  0.9803405548014076  0.9989270046977509   T   T   T
  0.5013133756411549  0.0196594451985924  0.4989270046977507   T   T   T
  0.5003905802113865  0.4804109257868278  0.0000821799374832   T   T   T
  0.4996094197886063  0.5195890742131724  0.5000821799374832   T   T   T
  0.2500001363351094  0.2499874385267394  0.2500034302659621   T   T   T
  0.7499998636648907  0.7500125614732607  0.7500034302659621   T   T   T
  0.2500011712212156  0.2499874285078691  0.7500040602975754   T   T   T
  0.2500116799447311  0.7499815847743073  0.2500092924906918   T   T   T
  0.2500007912352182  0.7500022376977659  0.7500209652965552   T   T   T
  0.7499992087647818  0.2499977623022340  0.2500209652965552   T   T   T
  0.7499883200552691  0.2500184152256926  0.7500092924906917   T   T   T
  0.7499988287787845  0.7500125714921310  0.2500040602975754   T   T   T
  0.2117404202803115  0.2491019733250668  0.9974580164317987   T   T   T
  0.2882596630797796  0.2508976692563595  0.5025371513370651   T   T   T
  0.2839076235510986  0.7502261377161875  0.9999789095064082   T   T   T
  0.2160928906858320  0.7497732193557902  0.5000153125972012   T   T   T
  0.7839071243141655  0.2502267806442098  0.0000153125972012   T   T   T
  0.7160923764489016  0.2497738622838125  0.4999789095064081   T   T   T
  0.7117403369202203  0.7491023307436405  0.0025371513370723   T   T   T
  0.7882595947196863  0.7508980266749332  0.4974580164317986   T   T   T
  0.2064593455163257  0.9974542104882366  0.2501153201850608   T   T   T
  0.2106813435898276  0.9999635063702906  0.7496601096733474   T   T   T
  0.2935410576111349  0.5025502873009959  0.2498801048733511   T   T   T
  0.2893188049954997  0.5000361207634799  0.7503356422606544   T   T   T
  0.7893186714101701  0.0000364936297094  0.2496601096733475   T   T   T
  0.7935406694836720  0.0025457895117635  0.7501153201850607   T   T   T
  0.7106811950045003  0.4999638792365200  0.2503356422606616   T   T   T
  0.7064589423888651  0.4974497126990113  0.7498801048733510   T   T   T
  0.9975326676050275  0.2902620782602577  0.2859895856902359   T   T   T
  0.9999908176282336  0.2880766558061117  0.7159668365053895   T   T   T
  0.0000091823717593  0.7119233441938884  0.2159668515053800   T   T   T
  0.0024673323949725  0.7097379217397424  0.7859895856902358   T   T   T
  0.5024664233758505  0.2097374047099059  0.2140060456200733   T   T   T
  0.5000116297213796  0.2119247047595041  0.7840282167712935   T   T   T
  0.4999883702786347  0.7880753102404936  0.2840282167713006   T   T   T
  0.4975335766241495  0.7902626102900917  0.7140060306200756   T   T   T
 
  0.00000000E+00  0.00000000E+00  0.00000000E+00
  0.00000000E+00  0.00000000E+00  0.00000000E+00
  0.00000000E+00  0.00000000E+00  0.00000000E+00
  0.00000000E+00  0.00000000E+00  0.00000000E+00
  0.00000000E+00  0.00000000E+00  0.00000000E+00
  0.00000000E+00  0.00000000E+00  0.00000000E+00
  0.00000000E+00  0.00000000E+00  0.00000000E+00
  0.00000000E+00  0.00000000E+00  0.00000000E+00
  0.00000000E+00  0.00000000E+00  0.00000000E+00
  0.00000000E+00  0.00000000E+00  0.00000000E+00
  0.00000000E+00  0.00000000E+00  0.00000000E+00
  0.00000000E+00  0.00000000E+00  0.00000000E+00
  0.00000000E+00  0.00000000E+00  0.00000000E+00
  0.00000000E+00  0.00000000E+00  0.00000000E+00
  0.00000000E+00  0.00000000E+00  0.00000000E+00
  0.00000000E+00  0.00000000E+00  0.00000000E+00
  0.00000000E+00  0.00000000E+00  0.00000000E+00
  0.00000000E+00  0.00000000E+00  0.00000000E+00
  0.00000000E+00  0.00000000E+00  0.00000000E+00
  0.00000000E+00  0.00000000E+00  0.00000000E+00
  0.00000000E+00  0.00000000E+00  0.00000000E+00
  0.00000000E+00  0.00000000E+00  0.00000000E+00
  0.00000000E+00  0.00000000E+00  0.00000000E+00
  0.00000000E+00  0.00000000E+00  0.00000000E+00
  0.00000000E+00  0.00000000E+00  0.00000000E+00
  0.00000000E+00  0.00000000E+00  0.00000000E+00
  0.00000000E+00  0.00000000E+00  0.00000000E+00
  0.00000000E+00  0.00000000E+00  0.00000000E+00
  0.00000000E+00  0.00000000E+00  0.00000000E+00
  0.00000000E+00  0.00000000E+00  0.00000000E+00
  0.00000000E+00  0.00000000E+00  0.00000000E+00
  0.00000000E+00  0.00000000E+00  0.00000000E+00
  0.00000000E+00  0.00000000E+00  0.00000000E+00
  0.00000000E+00  0.00000000E+00  0.00000000E+00
  0.00000000E+00  0.00000000E+00  0.00000000E+00
  0.00000000E+00  0.00000000E+00  0.00000000E+00
  0.00000000E+00  0.00000000E+00  0.00000000E+00
  0.00000000E+00  0.00000000E+00  0.00000000E+00
  0.00000000E+00  0.00000000E+00  0.00000000E+00
  0.00000000E+00  0.00000000E+00  0.00000000E+00
