MAPbI3-cubic                            
   1.00000000000000     
    12.6938632505771842    0.0000000000000000    0.0000000000000000
     0.0000000000000000   12.6963707593668911    0.0000000000000000
     0.0000000000000000    0.0000000000000000   12.6966896281480430
   Cs   Pb   Sn   I 
     8     5     3    24
Selective dynamics
Direct
  0.9964097912464798  0.9814842801178798  0.9988786367241645   T   T   T
  0.9966168298217636  0.0165289378200820  0.5010538621933025   T   T   T
  0.9959785386283496  0.4807078666075649  0.9988843434175434   T   T   T
  0.9947320740099417  0.5222069030887477  0.5022815027441830   T   T   T
  0.5052679259900583  0.9777930969112523  0.9977184972558170   T   T   T
  0.5040214613716504  0.0192921333924353  0.5011156565824566   T   T   T
  0.5033831701782364  0.4834710621799181  0.9989461378066975   T   T   T
  0.5035902087535202  0.5185157198821202  0.5011213632758355   T   T   T
  0.2500000000000000  0.2500000000000000  0.2500000000000000   T   T   T
  0.2500000000000000  0.2500000000000000  0.7500000000000000   T   T   T
  0.2500000000000000  0.7500000000000000  0.2500000000000000   T   T   T
  0.2500000000000000  0.7500000000000000  0.7500000000000000   T   T   T
  0.7500000000000000  0.2500000000000000  0.2500000000000000   T   T   T
  0.7500000000000000  0.2500000000000000  0.7500000000000000   T   T   T
  0.7500000000000000  0.7500000000000000  0.2500000000000000   T   T   T
  0.7500000000000000  0.7500000000000000  0.7500000000000000   T   T   T
  0.2048549556820005  0.2502101246835425  0.9998991194012787   T   T   T
  0.2951450593179967  0.2497898753164576  0.5001008805987214   T   T   T
  0.2932953906169313  0.7496495246456293  0.9999363754528046   T   T   T
  0.2067046243830671  0.7503504753543707  0.5000636245471954   T   T   T
  0.7885662917385307  0.2494755709251277  0.9973537294435949   T   T   T
  0.7114337082614693  0.2505244290748718  0.5026462705564051   T   T   T
  0.7175283535326701  0.7499562607700764  0.9998062453843992   T   T   T
  0.7824716464673299  0.7500437392299236  0.5001937546156008   T   T   T
  0.1991950694586657  0.9999306458530789  0.2501857515119703   T   T   T
  0.2011534983639739  0.9999472537916463  0.7498939378187546   T   T   T
  0.3008049455413327  0.5000693541469211  0.2498142484880282   T   T   T
  0.2988465166360244  0.5000527462083537  0.7501060621812454   T   T   T
  0.7937174329054395  0.9973476080275000  0.2500875604331782   T   T   T
  0.7875203480522669  0.9998021944480431  0.7495278287321953   T   T   T
  0.7062825670945605  0.5026523919725000  0.2499124395668219   T   T   T
  0.7124796519477331  0.5001978055519569  0.7504721712678047   T   T   T
 -0.0003401827796899  0.2945009388679022  0.2900091243123198   T   T   T
  0.9972752110097266  0.2900547994229892  0.7123452453152883   T   T   T
  0.9972362219441507  0.7080054136683959  0.2142585096694693   T   T   T
  0.9972431375152969  0.7100662672117131  0.7855839187145053   T   T   T
  0.5003401827796877  0.2054990761320958  0.2099908906876780   T   T   T
  0.5027247889902734  0.2099452155770080  0.7876547546847117   T   T   T
  0.5027637780558493  0.7919945863316041  0.2857415053305280   T   T   T
  0.5027568624847031  0.7899337327882869  0.7144160812854947   T   T   T
 
  0.00000000E+00  0.00000000E+00  0.00000000E+00
  0.00000000E+00  0.00000000E+00  0.00000000E+00
  0.00000000E+00  0.00000000E+00  0.00000000E+00
  0.00000000E+00  0.00000000E+00  0.00000000E+00
  0.00000000E+00  0.00000000E+00  0.00000000E+00
  0.00000000E+00  0.00000000E+00  0.00000000E+00
  0.00000000E+00  0.00000000E+00  0.00000000E+00
  0.00000000E+00  0.00000000E+00  0.00000000E+00
  0.00000000E+00  0.00000000E+00  0.00000000E+00
  0.00000000E+00  0.00000000E+00  0.00000000E+00
  0.00000000E+00  0.00000000E+00  0.00000000E+00
  0.00000000E+00  0.00000000E+00  0.00000000E+00
  0.00000000E+00  0.00000000E+00  0.00000000E+00
  0.00000000E+00  0.00000000E+00  0.00000000E+00
  0.00000000E+00  0.00000000E+00  0.00000000E+00
  0.00000000E+00  0.00000000E+00  0.00000000E+00
  0.00000000E+00  0.00000000E+00  0.00000000E+00
  0.00000000E+00  0.00000000E+00  0.00000000E+00
  0.00000000E+00  0.00000000E+00  0.00000000E+00
  0.00000000E+00  0.00000000E+00  0.00000000E+00
  0.00000000E+00  0.00000000E+00  0.00000000E+00
  0.00000000E+00  0.00000000E+00  0.00000000E+00
  0.00000000E+00  0.00000000E+00  0.00000000E+00
  0.00000000E+00  0.00000000E+00  0.00000000E+00
  0.00000000E+00  0.00000000E+00  0.00000000E+00
  0.00000000E+00  0.00000000E+00  0.00000000E+00
  0.00000000E+00  0.00000000E+00  0.00000000E+00
  0.00000000E+00  0.00000000E+00  0.00000000E+00
  0.00000000E+00  0.00000000E+00  0.00000000E+00
  0.00000000E+00  0.00000000E+00  0.00000000E+00
  0.00000000E+00  0.00000000E+00  0.00000000E+00
  0.00000000E+00  0.00000000E+00  0.00000000E+00
  0.00000000E+00  0.00000000E+00  0.00000000E+00
  0.00000000E+00  0.00000000E+00  0.00000000E+00
  0.00000000E+00  0.00000000E+00  0.00000000E+00
  0.00000000E+00  0.00000000E+00  0.00000000E+00
  0.00000000E+00  0.00000000E+00  0.00000000E+00
  0.00000000E+00  0.00000000E+00  0.00000000E+00
  0.00000000E+00  0.00000000E+00  0.00000000E+00
  0.00000000E+00  0.00000000E+00  0.00000000E+00
