MAPbI3-cubic                            
   1.00000000000000     
    12.6394395565677726    0.0000000000000000    0.0000000000000000
     0.0000000000000000   12.6455454901910027    0.0000000000000000
     0.0000000000000000    0.0000000000000000   12.6495890018939541
   Cs   Pb   Sn   I 
     8     3     5    24
Selective dynamics
Direct
  0.0067392670697193  0.9646842129164925  0.9987033386288885   T   T   T
  0.9696632030246257  0.0326483439135270  0.5017621747198618   T   T   T
  0.0323588416877927  0.4804299216949509  0.9989505535609056   T   T   T
  0.9698660339011579  0.5206364672552921  0.5010083523481340   T   T   T
  0.5301339660988421  0.9793635327447079  0.9989916476518660   T   T   T
  0.4676411583122070  0.0195700783050492  0.5010494464390944   T   T   T
  0.5303367969753743  0.4673516560864729  0.9982378252801453   T   T   T
  0.4932607329302805  0.5353157870835075  0.5012966613711115   T   T   T
  0.2500000000000000  0.2500000000000000  0.2500000000000000   T   T   T
  0.2500000000000000  0.2500000000000000  0.7500000000000000   T   T   T
  0.2500000000000000  0.7500000000000000  0.2500000000000000   T   T   T
  0.2500000000000000  0.7500000000000000  0.7500000000000000   T   T   T
  0.7500000000000000  0.2500000000000000  0.2500000000000000   T   T   T
  0.7500000000000000  0.2500000000000000  0.7500000000000000   T   T   T
  0.7500000000000000  0.7500000000000000  0.2500000000000000   T   T   T
  0.7500000000000000  0.7500000000000000  0.7500000000000000   T   T   T
  0.2028682041094790  0.2115576931472015 -0.0000365262740038   T   T   T
  0.2971318108905188  0.2884423068527985  0.5000365262740039   T   T   T
  0.2717399516140209  0.7973479146487944  0.9973412952456173   T   T   T
  0.2282600633859770  0.7026520853512056  0.5026587047543827   T   T   T
  0.7853495655533345  0.2766098197264287  0.9999146029557389   T   T   T
  0.7146504344466655  0.2233901802735712  0.5000853970442611   T   T   T
  0.7228778979440917  0.7288462412881122  0.9998866035369662   T   T   T
  0.7771221020559083  0.7711537587118878  0.5001133964630338   T   T   T
  0.2079726976984807  0.9998487948104052  0.2965906282858197   T   T   T
  0.2117630068022514  0.9974307745917262  0.7063166541262083   T   T   T
  0.2920273173015168  0.5001512051895948  0.2034093717141802   T   T   T
  0.2882370081977463  0.5025692254082738  0.7936833458737917   T   T   T
  0.7886106140636759 -0.0000385669791161  0.2257850940818873   T   T   T
  0.7850251325444140 -0.0000524846506598  0.7745761018926491   T   T   T
  0.7113893859363241  0.5000385669791163  0.2742149059181127   T   T   T
  0.7149748674555860  0.5000524846506601  0.7254238981073509   T   T   T
  0.9971569020677412  0.2900080821894252  0.2889057616480270   T   T   T
  0.9972858638621913  0.2878908011044363  0.7114223908393404   T   T   T
  0.9972807805337875  0.7075660379779557  0.2208456287692024   T   T   T
  0.9996869973178896  0.7130120111094004  0.7778735167693175   T   T   T
  0.5028430979322588  0.2099919328105725  0.2110942533519707   T   T   T
  0.5027141361378087  0.2121092138955614  0.7885776091606596   T   T   T
  0.5027192194662125  0.7924339620220443  0.2791543862307950   T   T   T
  0.5003130026821104  0.7869879888905996  0.7221264832306825   T   T   T
 
  0.00000000E+00  0.00000000E+00  0.00000000E+00
  0.00000000E+00  0.00000000E+00  0.00000000E+00
  0.00000000E+00  0.00000000E+00  0.00000000E+00
  0.00000000E+00  0.00000000E+00  0.00000000E+00
  0.00000000E+00  0.00000000E+00  0.00000000E+00
  0.00000000E+00  0.00000000E+00  0.00000000E+00
  0.00000000E+00  0.00000000E+00  0.00000000E+00
  0.00000000E+00  0.00000000E+00  0.00000000E+00
  0.00000000E+00  0.00000000E+00  0.00000000E+00
  0.00000000E+00  0.00000000E+00  0.00000000E+00
  0.00000000E+00  0.00000000E+00  0.00000000E+00
  0.00000000E+00  0.00000000E+00  0.00000000E+00
  0.00000000E+00  0.00000000E+00  0.00000000E+00
  0.00000000E+00  0.00000000E+00  0.00000000E+00
  0.00000000E+00  0.00000000E+00  0.00000000E+00
  0.00000000E+00  0.00000000E+00  0.00000000E+00
  0.00000000E+00  0.00000000E+00  0.00000000E+00
  0.00000000E+00  0.00000000E+00  0.00000000E+00
  0.00000000E+00  0.00000000E+00  0.00000000E+00
  0.00000000E+00  0.00000000E+00  0.00000000E+00
  0.00000000E+00  0.00000000E+00  0.00000000E+00
  0.00000000E+00  0.00000000E+00  0.00000000E+00
  0.00000000E+00  0.00000000E+00  0.00000000E+00
  0.00000000E+00  0.00000000E+00  0.00000000E+00
  0.00000000E+00  0.00000000E+00  0.00000000E+00
  0.00000000E+00  0.00000000E+00  0.00000000E+00
  0.00000000E+00  0.00000000E+00  0.00000000E+00
  0.00000000E+00  0.00000000E+00  0.00000000E+00
  0.00000000E+00  0.00000000E+00  0.00000000E+00
  0.00000000E+00  0.00000000E+00  0.00000000E+00
  0.00000000E+00  0.00000000E+00  0.00000000E+00
  0.00000000E+00  0.00000000E+00  0.00000000E+00
  0.00000000E+00  0.00000000E+00  0.00000000E+00
  0.00000000E+00  0.00000000E+00  0.00000000E+00
  0.00000000E+00  0.00000000E+00  0.00000000E+00
  0.00000000E+00  0.00000000E+00  0.00000000E+00
  0.00000000E+00  0.00000000E+00  0.00000000E+00
  0.00000000E+00  0.00000000E+00  0.00000000E+00
  0.00000000E+00  0.00000000E+00  0.00000000E+00
  0.00000000E+00  0.00000000E+00  0.00000000E+00
