MAPbI3-cubic                            
   1.00000000000000     
    12.7181932665892017    0.0000000000000000    0.0000000000000000
     0.0000000000000000   12.7194181764425274    0.0000000000000000
     0.0000000000000000    0.0000000000000000   12.7206183527088363
   Cs   Pb   Sn   I 
     8     6     2    24
Selective dynamics
Direct
  0.0004294361636418  0.9821114137747128  1.0000602580527134   T   T   T
  0.9995705638363581  0.0178885862252885  0.5000602580527111   T   T   T
  0.9982398800965704  0.4792963874399714 -0.0012730021646742   T   T   T
  0.0017601199034269  0.5207036125600297  0.4987269978353265   T   T   T
  0.4982398800965738  0.9792963874399703  1.0012730021646741   T   T   T
  0.5017601199034294  0.0207036125600278  0.5012730021646713   T   T   T
  0.5004294361636420  0.4821114137747115 -0.0000602580527130   T   T   T
  0.4995705638363586  0.5178885862252872  0.4999397419472892   T   T   T
  0.2500000000000000  0.2500000000000000  0.2500000000000000   T   T   T
  0.2500000000000000  0.2500000000000000  0.7500000000000000   T   T   T
  0.2500000000000000  0.7500000000000000  0.2500000000000000   T   T   T
  0.7500000000000000  0.2500000000000000  0.7500000000000000   T   T   T
  0.7500000000000000  0.7500000000000000  0.2500000000000000   T   T   T
  0.7500000000000000  0.7500000000000000  0.7500000000000000   T   T   T
  0.2500000000000000  0.7500000000000000  0.7500000000000000   T   T   T
  0.7500000000000000  0.2500000000000000  0.2500000000000000   T   T   T
  0.2069178896493368  0.2494626705262103  0.9999545165861545   T   T   T
  0.2930821253506604  0.2505373294737908  0.5000454834138417   T   T   T
  0.2880120367583429  0.7506308532184172  0.9974988987720689   T   T   T
  0.2119879782416534  0.7493691467815828  0.5025011012279311   T   T   T
  0.7880120367583441  0.2506308532184206  0.0025011012279316   T   T   T
  0.7119879632416559  0.2493691467815812  0.4974988987720685   T   T   T
  0.7069178746493362  0.7494626705262122  0.0000454834138423   T   T   T
  0.7930821253506638  0.7505373294737878  0.4999545165861588   T   T   T
  0.2012046470172339  0.9999220064266241  0.2502649217106764   T   T   T
  0.2060296558439848  0.9974886364813210  0.7500684813170255   T   T   T
  0.2987953679827615  0.5000779935733767  0.2497350782893229   T   T   T
  0.2939703591560127  0.5025113635186790  0.7499315186829745   T   T   T
  0.7939703591560101  0.0025113635186779  0.2500684813170250   T   T   T
  0.7987953679827633  0.0000779935733779  0.7502649217106717   T   T   T
  0.7060296408439899  0.4974886364813220  0.2499315186829740   T   T   T
  0.7012046320172367  0.4999220064266215  0.7497350782893283   T   T   T
  0.9975641705488683  0.2915190935055608  0.2872257071817602   T   T   T
  0.9999798797326729  0.2940215458558710  0.7105401126601707   T   T   T
  0.0000201202673290  0.7059784541441255  0.2105401276601694   T   T   T
  0.0024358294511329  0.7084809064944422  0.7872257071817612   T   T   T
  0.5024358294511317  0.2084809214944385  0.2127743078182353   T   T   T
  0.5000201202673306  0.2059784691441267  0.7894598873398293   T   T   T
  0.4999798797326698  0.7940215458558745  0.2894598873398286   T   T   T
  0.4975641705488666  0.7915190935055578  0.7127742928182388   T   T   T
 
  0.00000000E+00  0.00000000E+00  0.00000000E+00
  0.00000000E+00  0.00000000E+00  0.00000000E+00
  0.00000000E+00  0.00000000E+00  0.00000000E+00
  0.00000000E+00  0.00000000E+00  0.00000000E+00
  0.00000000E+00  0.00000000E+00  0.00000000E+00
  0.00000000E+00  0.00000000E+00  0.00000000E+00
  0.00000000E+00  0.00000000E+00  0.00000000E+00
  0.00000000E+00  0.00000000E+00  0.00000000E+00
  0.00000000E+00  0.00000000E+00  0.00000000E+00
  0.00000000E+00  0.00000000E+00  0.00000000E+00
  0.00000000E+00  0.00000000E+00  0.00000000E+00
  0.00000000E+00  0.00000000E+00  0.00000000E+00
  0.00000000E+00  0.00000000E+00  0.00000000E+00
  0.00000000E+00  0.00000000E+00  0.00000000E+00
  0.00000000E+00  0.00000000E+00  0.00000000E+00
  0.00000000E+00  0.00000000E+00  0.00000000E+00
  0.00000000E+00  0.00000000E+00  0.00000000E+00
  0.00000000E+00  0.00000000E+00  0.00000000E+00
  0.00000000E+00  0.00000000E+00  0.00000000E+00
  0.00000000E+00  0.00000000E+00  0.00000000E+00
  0.00000000E+00  0.00000000E+00  0.00000000E+00
  0.00000000E+00  0.00000000E+00  0.00000000E+00
  0.00000000E+00  0.00000000E+00  0.00000000E+00
  0.00000000E+00  0.00000000E+00  0.00000000E+00
  0.00000000E+00  0.00000000E+00  0.00000000E+00
  0.00000000E+00  0.00000000E+00  0.00000000E+00
  0.00000000E+00  0.00000000E+00  0.00000000E+00
  0.00000000E+00  0.00000000E+00  0.00000000E+00
  0.00000000E+00  0.00000000E+00  0.00000000E+00
  0.00000000E+00  0.00000000E+00  0.00000000E+00
  0.00000000E+00  0.00000000E+00  0.00000000E+00
  0.00000000E+00  0.00000000E+00  0.00000000E+00
  0.00000000E+00  0.00000000E+00  0.00000000E+00
  0.00000000E+00  0.00000000E+00  0.00000000E+00
  0.00000000E+00  0.00000000E+00  0.00000000E+00
  0.00000000E+00  0.00000000E+00  0.00000000E+00
  0.00000000E+00  0.00000000E+00  0.00000000E+00
  0.00000000E+00  0.00000000E+00  0.00000000E+00
  0.00000000E+00  0.00000000E+00  0.00000000E+00
  0.00000000E+00  0.00000000E+00  0.00000000E+00
