MAPbI3-cubic                            
   1.00000000000000     
    12.6404844025844145    0.0000000000000000    0.0000000000000000
     0.0000000000000000   12.6410018681250591    0.0000000000000000
     0.0000000000000000    0.0000000000000000   12.6414881907228978
   Cs   Pb   Sn   I 
     8     3     5    24
Selective dynamics
Direct
  0.9986944146893272  0.9791050809820756  0.0010883322993150   T   T   T
  0.9990827649300904  0.0193014682413743  0.4987001126532165   T   T   T
  0.9987923815899800  0.4816246519800079  0.0026261724900498   T   T   T
  0.9972091191036454  0.5215457522207573  0.4986642056509380   T   T   T
  0.5027908808963546  0.9784542477792427  0.0013357943490618   T   T   T
  0.5012076184100200  0.0183753480199925  0.4973738275099509   T   T   T
  0.5009172350699096  0.4806985317586333  0.0012998873467835   T   T   T
  0.5013055853106728  0.5208949190179244  0.4989116677006848   T   T   T
  0.2500000000000000  0.2500000000000000  0.2500000000000000   T   T   T
  0.2500000000000000  0.7500000000000000  0.7500000000000000   T   T   T
  0.7500000000000000  0.2500000000000000  0.7500000000000000   T   T   T
  0.2500000000000000  0.2500000000000000  0.7500000000000000   T   T   T
  0.2500000000000000  0.7500000000000000  0.2500000000000000   T   T   T
  0.7500000000000000  0.2500000000000000  0.2500000000000000   T   T   T
  0.7500000000000000  0.7500000000000000  0.2500000000000000   T   T   T
  0.7500000000000000  0.7500000000000000  0.7500000000000000   T   T   T
  0.2099599051577264  0.2506352845170340  0.9976637336885125   T   T   T
  0.2900401098422713  0.2493647154829665  0.5023362663114875   T   T   T
  0.2870474661897284  0.7503674163298725  0.0025196565340085   T   T   T
  0.2129525488102696  0.7496325836701275  0.4974803434659919   T   T   T
  0.7892619178541466  0.2494540874576108  0.0025643423328826   T   T   T
  0.7107380821458534  0.2505459125423965  0.4974356576671177   T   T   T
  0.7179898422589233  0.7505146018943715  0.0002138086622005   T   T   T
  0.7820101577410767  0.7494853981056285  0.4997861913377989   T   T   T
  0.2070094643037899  0.9974875654069661  0.2498428482558260   T   T   T
  0.2035790935402288  0.0023791795813002  0.7494670314937845   T   T   T
  0.2929905506962066  0.5025124345930339  0.2501571517441744   T   T   T
  0.2964209214597681  0.4976208204187066  0.7505329685062155   T   T   T
  0.7881308122310059  0.9998019384188177  0.2507851445251293   T   T   T
  0.7952094554510315  0.9974137797043712  0.7496298686707177   T   T   T
  0.7118691877689941  0.5001980615811823  0.2492148554748711   T   T   T
  0.7047905445489685  0.5025862202956288  0.7503701313292823   T   T   T
  0.9974285744325270  0.2890671413463481  0.2883295331552333   T   T   T
  0.0023141177548842  0.2925010388989490  0.7119849971765226   T   T   T
  0.9998301195878433  0.7127189773006994  0.2169192624977806   T   T   T
  0.9974112204789634  0.7070586744706575  0.7846449578345659   T   T   T
  0.5025714255674730  0.2109328736536497  0.2116704818447654   T   T   T
  0.4976858822451160  0.2074989761010484  0.7880150028234774   T   T   T
  0.5001698804121567  0.7872810226993006  0.2830807525022099   T   T   T
  0.5025887795210366  0.7929413255293425  0.7153550421654341   T   T   T
 
  0.00000000E+00  0.00000000E+00  0.00000000E+00
  0.00000000E+00  0.00000000E+00  0.00000000E+00
  0.00000000E+00  0.00000000E+00  0.00000000E+00
  0.00000000E+00  0.00000000E+00  0.00000000E+00
  0.00000000E+00  0.00000000E+00  0.00000000E+00
  0.00000000E+00  0.00000000E+00  0.00000000E+00
  0.00000000E+00  0.00000000E+00  0.00000000E+00
  0.00000000E+00  0.00000000E+00  0.00000000E+00
  0.00000000E+00  0.00000000E+00  0.00000000E+00
  0.00000000E+00  0.00000000E+00  0.00000000E+00
  0.00000000E+00  0.00000000E+00  0.00000000E+00
  0.00000000E+00  0.00000000E+00  0.00000000E+00
  0.00000000E+00  0.00000000E+00  0.00000000E+00
  0.00000000E+00  0.00000000E+00  0.00000000E+00
  0.00000000E+00  0.00000000E+00  0.00000000E+00
  0.00000000E+00  0.00000000E+00  0.00000000E+00
  0.00000000E+00  0.00000000E+00  0.00000000E+00
  0.00000000E+00  0.00000000E+00  0.00000000E+00
  0.00000000E+00  0.00000000E+00  0.00000000E+00
  0.00000000E+00  0.00000000E+00  0.00000000E+00
  0.00000000E+00  0.00000000E+00  0.00000000E+00
  0.00000000E+00  0.00000000E+00  0.00000000E+00
  0.00000000E+00  0.00000000E+00  0.00000000E+00
  0.00000000E+00  0.00000000E+00  0.00000000E+00
  0.00000000E+00  0.00000000E+00  0.00000000E+00
  0.00000000E+00  0.00000000E+00  0.00000000E+00
  0.00000000E+00  0.00000000E+00  0.00000000E+00
  0.00000000E+00  0.00000000E+00  0.00000000E+00
  0.00000000E+00  0.00000000E+00  0.00000000E+00
  0.00000000E+00  0.00000000E+00  0.00000000E+00
  0.00000000E+00  0.00000000E+00  0.00000000E+00
  0.00000000E+00  0.00000000E+00  0.00000000E+00
  0.00000000E+00  0.00000000E+00  0.00000000E+00
  0.00000000E+00  0.00000000E+00  0.00000000E+00
  0.00000000E+00  0.00000000E+00  0.00000000E+00
  0.00000000E+00  0.00000000E+00  0.00000000E+00
  0.00000000E+00  0.00000000E+00  0.00000000E+00
  0.00000000E+00  0.00000000E+00  0.00000000E+00
  0.00000000E+00  0.00000000E+00  0.00000000E+00
  0.00000000E+00  0.00000000E+00  0.00000000E+00
