MAPbI3-cubic                            
   1.00000000000000     
    12.6680613150076802    0.0000000000000000    0.0000000000000000
     0.0000000000000000   12.6713146463051238    0.0000000000000000
     0.0000000000000000    0.0000000000000000   12.6723368755865984
   Cs   Pb   Sn   I 
     8     4     4    24
Selective dynamics
Direct
  0.9978704154192553  0.9819815104025192  0.0000070470203461   T   T   T
  0.9972884498358731  0.0180050619505325  0.4999864545408311   T   T   T
  0.9956362387591812  0.4797208099595513 -0.0000130543608673   T   T   T
  0.9980598577413429  0.5203808966751264  0.5000195708632268   T   T   T
  0.5019401422586571  0.9796191033248736 -0.0000195708632273   T   T   T
  0.5043637612408188  0.0202791900404482  0.5000130543608677   T   T   T
  0.5027115501641269  0.4819949380494638  0.0000135454591691   T   T   T
  0.5021295845807447  0.5180184895974808  0.4999929529796603   T   T   T
  0.2500000000000000  0.2500000000000000  0.2500000000000000   T   T   T
  0.2500000000000000  0.2500000000000000  0.7500000000000000   T   T   T
  0.2500000000000000  0.7500000000000000  0.2500000000000000   T   T   T
  0.7500000000000000  0.7500000000000000  0.7500000000000000   T   T   T
  0.2500000000000000  0.7500000000000000  0.7500000000000000   T   T   T
  0.7500000000000000  0.2500000000000000  0.2500000000000000   T   T   T
  0.7500000000000000  0.2500000000000000  0.7500000000000000   T   T   T
  0.7500000000000000  0.7500000000000000  0.2500000000000000   T   T   T
  0.2059940608320956  0.2495690476755377 -0.0000681291149408   T   T   T
  0.2940059541679038  0.2504309523244633  0.5000681291149466   T   T   T
  0.2893963718445173  0.7509324950134292  0.9975015054366049   T   T   T
  0.2106036431554807  0.7490675049865708  0.5024984945633951   T   T   T
  0.7839471355043436  0.2505510150486712  0.0000916780925031   T   T   T
  0.7160528644956564  0.2494489849513291  0.4999083219074971   T   T   T
  0.7120323443881036  0.7493244505710579  0.0025253586394865   T   T   T
  0.7879676556118964  0.7506755494289421  0.4974746413605124   T   T   T
  0.2002052462240944 -0.0000877679036204  0.2504880260940306   T   T   T
  0.2049418220792881  0.9974462155624199  0.7499742879407889   T   T   T
  0.2997947687759020  0.5000877679036203  0.2495119739059691   T   T   T
  0.2950581929207101  0.5025537844375801  0.7500257120592111   T   T   T
  0.7894009972899719  0.0001213604446823  0.2495156018613429   T   T   T
  0.7932702522448307  0.0025430202267085  0.7500558098939423   T   T   T
  0.7105990027100281  0.4998786395553174  0.2504843981386583   T   T   T
  0.7067297477551693  0.4974569797732905  0.7499441901060577   T   T   T
  0.9973188725719384  0.2908596419850113  0.2866760601565548   T   T   T
  0.9973066470701014  0.2908764433347392  0.7133559298114274   T   T   T
  0.9973508728443703  0.7091686164714737  0.2133317093884052   T   T   T
  0.0021363994426810  0.7091140653791698  0.7867071790589090   T   T   T
  0.5026811274280616  0.2091403730149864  0.2133239548434444   T   T   T
  0.5026933529298986  0.2091235716652568  0.7866440701885726   T   T   T
  0.5026491271556297  0.7908313835285263  0.2866683056115898   T   T   T
  0.4978636005573179  0.7908859346208302  0.7132928209410910   T   T   T
 
  0.00000000E+00  0.00000000E+00  0.00000000E+00
  0.00000000E+00  0.00000000E+00  0.00000000E+00
  0.00000000E+00  0.00000000E+00  0.00000000E+00
  0.00000000E+00  0.00000000E+00  0.00000000E+00
  0.00000000E+00  0.00000000E+00  0.00000000E+00
  0.00000000E+00  0.00000000E+00  0.00000000E+00
  0.00000000E+00  0.00000000E+00  0.00000000E+00
  0.00000000E+00  0.00000000E+00  0.00000000E+00
  0.00000000E+00  0.00000000E+00  0.00000000E+00
  0.00000000E+00  0.00000000E+00  0.00000000E+00
  0.00000000E+00  0.00000000E+00  0.00000000E+00
  0.00000000E+00  0.00000000E+00  0.00000000E+00
  0.00000000E+00  0.00000000E+00  0.00000000E+00
  0.00000000E+00  0.00000000E+00  0.00000000E+00
  0.00000000E+00  0.00000000E+00  0.00000000E+00
  0.00000000E+00  0.00000000E+00  0.00000000E+00
  0.00000000E+00  0.00000000E+00  0.00000000E+00
  0.00000000E+00  0.00000000E+00  0.00000000E+00
  0.00000000E+00  0.00000000E+00  0.00000000E+00
  0.00000000E+00  0.00000000E+00  0.00000000E+00
  0.00000000E+00  0.00000000E+00  0.00000000E+00
  0.00000000E+00  0.00000000E+00  0.00000000E+00
  0.00000000E+00  0.00000000E+00  0.00000000E+00
  0.00000000E+00  0.00000000E+00  0.00000000E+00
  0.00000000E+00  0.00000000E+00  0.00000000E+00
  0.00000000E+00  0.00000000E+00  0.00000000E+00
  0.00000000E+00  0.00000000E+00  0.00000000E+00
  0.00000000E+00  0.00000000E+00  0.00000000E+00
  0.00000000E+00  0.00000000E+00  0.00000000E+00
  0.00000000E+00  0.00000000E+00  0.00000000E+00
  0.00000000E+00  0.00000000E+00  0.00000000E+00
  0.00000000E+00  0.00000000E+00  0.00000000E+00
  0.00000000E+00  0.00000000E+00  0.00000000E+00
  0.00000000E+00  0.00000000E+00  0.00000000E+00
  0.00000000E+00  0.00000000E+00  0.00000000E+00
  0.00000000E+00  0.00000000E+00  0.00000000E+00
  0.00000000E+00  0.00000000E+00  0.00000000E+00
  0.00000000E+00  0.00000000E+00  0.00000000E+00
  0.00000000E+00  0.00000000E+00  0.00000000E+00
  0.00000000E+00  0.00000000E+00  0.00000000E+00
