MAPbI3-cubic                            
   1.00000000000000     
    12.7254892455102393    0.0000000000000000    0.0000000000000000
     0.0000000000000000   12.7265538477108553    0.0000000000000000
     0.0000000000000000    0.0000000000000000   12.7273981535667620
   Cs   Pb   Sn   I 
     8     6     2    24
Selective dynamics
Direct
  0.9974906044404002  0.9828315493327263 -0.0000369647056241   T   T   T
  0.9974906044404002  0.0171684506672742  0.4999630352943755   T   T   T
  0.9965310850890121  0.4792629266423690  1.0009998708786143   T   T   T
  0.9965310850890130  0.5207370733576339  0.5009998708786029   T   T   T
  0.5034689149109884  0.9792629266423661 -0.0009998708786064   T   T   T
  0.5034689149109879  0.0207370733576317  0.4990001291213954   T   T   T
  0.5025093955595999  0.4828315493327267  1.0000369647056244   T   T   T
  0.5025093955595999  0.5171684506672737  0.5000369647056249   T   T   T
  0.2500000000000000  0.2500000000000000  0.2500000000000000   T   T   T
  0.2500000000000000  0.2500000000000000  0.7500000000000000   T   T   T
  0.2500000000000000  0.7500000000000000  0.2500000000000000   T   T   T
  0.2500000000000000  0.7500000000000000  0.7500000000000000   T   T   T
  0.7500000000000000  0.2500000000000000  0.2500000000000000   T   T   T
  0.7500000000000000  0.7500000000000000  0.7500000000000000   T   T   T
  0.7500000000000000  0.2500000000000000  0.7500000000000000   T   T   T
  0.7500000000000000  0.7500000000000000  0.2500000000000000   T   T   T
  0.2061719042069109  0.2501583927476456  0.9999529308898204   T   T   T
  0.2938281107930871  0.2498416072523531  0.5000470691101829   T   T   T
  0.2938281107930871  0.7501583927476499  0.0000470691101842   T   T   T
  0.2061719042069109  0.7498416072523501  0.4999529308898170   T   T   T
  0.7876588125731516  0.2497928037138065  0.9975425597355797   T   T   T
  0.7123411874268484  0.2502071962861917  0.5024574402644203   T   T   T
  0.7123411874268484  0.7497928037138051  0.0024574402644211   T   T   T
  0.7876588125731516  0.7502071962861949  0.4975425597355788   T   T   T
  0.2006281352954408  0.9999676633336658  0.2500778398231659   T   T   T
  0.2006281352954408  0.0000323366663331  0.7500778398231677   T   T   T
  0.2993718797045560  0.5000323366663325  0.2499221601768321   T   T   T
  0.2993718797045560  0.4999676633336658  0.7499221601768323   T   T   T
  0.7933480297740811  0.9975200389350388  0.2496089624750711   T   T   T
  0.7933480297740811  0.0024799610649631  0.7496089624750684   T   T   T
  0.7066519702259189  0.5024799610649612  0.2503910375249263   T   T   T
  0.7066519702259189  0.4975200389350374  0.7503910375249316   T   T   T
  0.9997056826337055  0.2939229959912208  0.2893872696562264   T   T   T
  0.9972408127648413  0.2914584589525764  0.7129292944828080   T   T   T
  0.9972408127648413  0.7085415410474206  0.2129293094828073   T   T   T
  0.9997056826337055  0.7060770040087780  0.7893872696562271   T   T   T
  0.5002943173662930  0.2060770190087765  0.2106127453437724   T   T   T
  0.5027591872351587  0.2085415560474217  0.7870707055171920   T   T   T
  0.5027591872351587  0.7914584589525794  0.2870707055171916   T   T   T
  0.5002943173662930  0.7939229959912220  0.7106127303437729   T   T   T
 
  0.00000000E+00  0.00000000E+00  0.00000000E+00
  0.00000000E+00  0.00000000E+00  0.00000000E+00
  0.00000000E+00  0.00000000E+00  0.00000000E+00
  0.00000000E+00  0.00000000E+00  0.00000000E+00
  0.00000000E+00  0.00000000E+00  0.00000000E+00
  0.00000000E+00  0.00000000E+00  0.00000000E+00
  0.00000000E+00  0.00000000E+00  0.00000000E+00
  0.00000000E+00  0.00000000E+00  0.00000000E+00
  0.00000000E+00  0.00000000E+00  0.00000000E+00
  0.00000000E+00  0.00000000E+00  0.00000000E+00
  0.00000000E+00  0.00000000E+00  0.00000000E+00
  0.00000000E+00  0.00000000E+00  0.00000000E+00
  0.00000000E+00  0.00000000E+00  0.00000000E+00
  0.00000000E+00  0.00000000E+00  0.00000000E+00
  0.00000000E+00  0.00000000E+00  0.00000000E+00
  0.00000000E+00  0.00000000E+00  0.00000000E+00
  0.00000000E+00  0.00000000E+00  0.00000000E+00
  0.00000000E+00  0.00000000E+00  0.00000000E+00
  0.00000000E+00  0.00000000E+00  0.00000000E+00
  0.00000000E+00  0.00000000E+00  0.00000000E+00
  0.00000000E+00  0.00000000E+00  0.00000000E+00
  0.00000000E+00  0.00000000E+00  0.00000000E+00
  0.00000000E+00  0.00000000E+00  0.00000000E+00
  0.00000000E+00  0.00000000E+00  0.00000000E+00
  0.00000000E+00  0.00000000E+00  0.00000000E+00
  0.00000000E+00  0.00000000E+00  0.00000000E+00
  0.00000000E+00  0.00000000E+00  0.00000000E+00
  0.00000000E+00  0.00000000E+00  0.00000000E+00
  0.00000000E+00  0.00000000E+00  0.00000000E+00
  0.00000000E+00  0.00000000E+00  0.00000000E+00
  0.00000000E+00  0.00000000E+00  0.00000000E+00
  0.00000000E+00  0.00000000E+00  0.00000000E+00
  0.00000000E+00  0.00000000E+00  0.00000000E+00
  0.00000000E+00  0.00000000E+00  0.00000000E+00
  0.00000000E+00  0.00000000E+00  0.00000000E+00
  0.00000000E+00  0.00000000E+00  0.00000000E+00
  0.00000000E+00  0.00000000E+00  0.00000000E+00
  0.00000000E+00  0.00000000E+00  0.00000000E+00
  0.00000000E+00  0.00000000E+00  0.00000000E+00
  0.00000000E+00  0.00000000E+00  0.00000000E+00
