MAPbI3-cubic                            
   1.00000000000000     
    12.6432276313736889    0.0000000000000000    0.0000000000000000
     0.0000000000000000   12.6441926012833097    0.0000000000000000
     0.0000000000000000    0.0000000000000000   12.6477555941466520
   Cs   Pb   Sn   I 
     8     3     5    24
Selective dynamics
Direct
  0.9995250488499101  0.9794117832051876  0.9989554210490875   T   T   T
  0.9979632775539349  0.0187788043416049  0.5012418817959774   T   T   T
  0.9961405445125422  0.4816485108013132  0.9976051882214407   T   T   T
  0.0003948469274646  0.5212471308495802  0.5013146103888190   T   T   T
  0.4996051530725355  0.9787528691504198  0.9986853896111810   T   T   T
  0.5038594554874578  0.0183514891986866  0.5023948117785593   T   T   T
  0.5020367224460651  0.4812211956583951  0.9987581182040226   T   T   T
  0.5004749511500899  0.5205882167948124  0.5010445789509125   T   T   T
  0.2500000000000000  0.2500000000000000  0.2500000000000000   T   T   T
  0.2500000000000000  0.2500000000000000  0.7500000000000000   T   T   T
  0.7500000000000000  0.7500000000000000  0.2500000000000000   T   T   T
  0.2500000000000000  0.7500000000000000  0.2500000000000000   T   T   T
  0.2500000000000000  0.7500000000000000  0.7500000000000000   T   T   T
  0.7500000000000000  0.2500000000000000  0.2500000000000000   T   T   T
  0.7500000000000000  0.2500000000000000  0.7500000000000000   T   T   T
  0.7500000000000000  0.7500000000000000  0.7500000000000000   T   T   T
  0.2053466664151578  0.2488861793179028  0.9999264395164404   T   T   T
  0.2946533485848400  0.2511138206820971  0.5000735604835596   T   T   T
  0.2827683318691512  0.7512537480158513  0.9998295390869533   T   T   T
  0.2172316831308461  0.7487462519841487  0.5001704609130467   T   T   T
  0.7844909975824291  0.2507981480607732  0.9998132653714175   T   T   T
  0.7155090024175709  0.2492018519392271  0.5001867346285825   T   T   T
  0.7135917387717364  0.7490206046394461  0.9973976965879691   T   T   T
  0.7864082612282636  0.7509793953605539  0.5026023034120309   T   T   T
  0.2044508366953882  0.9973771243626196  0.2507799553706280   T   T   T
  0.2071365966294508  0.9973611766820739  0.7491291795378863   T   T   T
  0.2955491783046097  0.5026228756373804  0.2492200446293720   T   T   T
  0.2928634183705466  0.5026388233179261  0.7508708204621137   T   T   T
  0.7945823250257327  0.0024735225522559  0.2499219838260036   T   T   T
  0.7878996346554875 -0.0000504410479600  0.7504113571397538   T   T   T
  0.7054176749742673  0.4975264774477439  0.2500780161739968   T   T   T
  0.7121003653445125  0.5000504410479604  0.7495886428602462   T   T   T
  0.9973568430695012  0.2920064961293015  0.2875856259804357   T   T   T
  0.9974037957418412  0.2891675322213467  0.7124175223261610   T   T   T
  0.0024484939700278  0.7078871043928308  0.2152412367708969   T   T   T
  0.9998686808369508  0.7128703717733326  0.7829034104665454   T   T   T
  0.5026431569304988  0.2079935188706962  0.2124143890195620   T   T   T
  0.5025962042581588  0.2108324827786506  0.7875824776738390   T   T   T
  0.4975515060299726  0.7921128956071692  0.2847587782291008   T   T   T
  0.5001313191630492  0.7871296282266674  0.7170965895334546   T   T   T
 
  0.00000000E+00  0.00000000E+00  0.00000000E+00
  0.00000000E+00  0.00000000E+00  0.00000000E+00
  0.00000000E+00  0.00000000E+00  0.00000000E+00
  0.00000000E+00  0.00000000E+00  0.00000000E+00
  0.00000000E+00  0.00000000E+00  0.00000000E+00
  0.00000000E+00  0.00000000E+00  0.00000000E+00
  0.00000000E+00  0.00000000E+00  0.00000000E+00
  0.00000000E+00  0.00000000E+00  0.00000000E+00
  0.00000000E+00  0.00000000E+00  0.00000000E+00
  0.00000000E+00  0.00000000E+00  0.00000000E+00
  0.00000000E+00  0.00000000E+00  0.00000000E+00
  0.00000000E+00  0.00000000E+00  0.00000000E+00
  0.00000000E+00  0.00000000E+00  0.00000000E+00
  0.00000000E+00  0.00000000E+00  0.00000000E+00
  0.00000000E+00  0.00000000E+00  0.00000000E+00
  0.00000000E+00  0.00000000E+00  0.00000000E+00
  0.00000000E+00  0.00000000E+00  0.00000000E+00
  0.00000000E+00  0.00000000E+00  0.00000000E+00
  0.00000000E+00  0.00000000E+00  0.00000000E+00
  0.00000000E+00  0.00000000E+00  0.00000000E+00
  0.00000000E+00  0.00000000E+00  0.00000000E+00
  0.00000000E+00  0.00000000E+00  0.00000000E+00
  0.00000000E+00  0.00000000E+00  0.00000000E+00
  0.00000000E+00  0.00000000E+00  0.00000000E+00
  0.00000000E+00  0.00000000E+00  0.00000000E+00
  0.00000000E+00  0.00000000E+00  0.00000000E+00
  0.00000000E+00  0.00000000E+00  0.00000000E+00
  0.00000000E+00  0.00000000E+00  0.00000000E+00
  0.00000000E+00  0.00000000E+00  0.00000000E+00
  0.00000000E+00  0.00000000E+00  0.00000000E+00
  0.00000000E+00  0.00000000E+00  0.00000000E+00
  0.00000000E+00  0.00000000E+00  0.00000000E+00
  0.00000000E+00  0.00000000E+00  0.00000000E+00
  0.00000000E+00  0.00000000E+00  0.00000000E+00
  0.00000000E+00  0.00000000E+00  0.00000000E+00
  0.00000000E+00  0.00000000E+00  0.00000000E+00
  0.00000000E+00  0.00000000E+00  0.00000000E+00
  0.00000000E+00  0.00000000E+00  0.00000000E+00
  0.00000000E+00  0.00000000E+00  0.00000000E+00
  0.00000000E+00  0.00000000E+00  0.00000000E+00
