MAPbI3-cubic                            
   1.00000000000000     
    12.6118942286929201    0.0000000000000000    0.0000000000000000
     0.0000000000000000   12.6128929833012755    0.0000000000000000
     0.0000000000000000    0.0000000000000000   12.6136989532600516
   Cs   Pb   Sn   I 
     8     2     6    24
Selective dynamics
Direct
  0.9977701711558039  0.9806945987096993  0.9999261422881939   T   T   T
  0.9977701711558039  0.0193054012903008  0.4999261422881940   T   T   T
  0.9968891262486752  0.4801999940889377  0.0010984285129961   T   T   T
  0.9968891262486752  0.5198000059110625  0.5010984285129958   T   T   T
  0.5031108737513248  0.9801999940889375  0.9989015714870042   T   T   T
  0.5031108737513248  0.0198000059110624  0.4989015714870039   T   T   T
  0.5022298288441961  0.4806945987096992  0.0000738577118060   T   T   T
  0.5022298288441961  0.5193054012903007  0.5000738577118061   T   T   T
  0.2500000000000000  0.2500000000000000  0.2500000000000000   T   T   T
  0.2500000000000000  0.7500000000000000  0.7500000000000000   T   T   T
  0.2500000000000000  0.2500000000000000  0.7500000000000000   T   T   T
  0.2500000000000000  0.7500000000000000  0.2500000000000000   T   T   T
  0.7500000000000000  0.2500000000000000  0.2500000000000000   T   T   T
  0.7500000000000000  0.2500000000000000  0.7500000000000000   T   T   T
  0.7500000000000000  0.7500000000000000  0.2500000000000000   T   T   T
  0.7500000000000000  0.7500000000000000  0.7500000000000000   T   T   T
  0.2108255285331083  0.2500131034146270  0.9975387297429146   T   T   T
  0.2891744864668894  0.2499868965853729  0.5024612702570854   T   T   T
  0.2891744864668894  0.7500131034146273  0.0024612702570854   T   T   T
  0.2108255285331083  0.7499868965853727  0.4975387297429145   T   T   T
  0.7838749978400384  0.2495834015027406  0.9999514684156676   T   T   T
  0.7161250021599616  0.2504165984972592  0.5000485315843324   T   T   T
  0.7161250021599616  0.7495834015027408  0.0000485315843400   T   T   T
  0.7838749978400384  0.7504165984972592  0.4999514684156600   T   T   T
  0.2053606617256378  0.9975167632771171  0.2496419121643132   T   T   T
  0.2053606617256378  0.0024832367228828  0.7496419121643133   T   T   T
  0.2946393532743529  0.5024832367228829  0.2503580878356866   T   T   T
  0.2946393532743529  0.4975167632771174  0.7503580878356867   T   T   T
  0.7890044059994006  0.9999610636084878  0.2501126552236065   T   T   T
  0.7890044059994006  0.0000389363915123  0.7501126552236066   T   T   T
  0.7109955940005994  0.5000389363915193  0.2498873447763936   T   T   T
  0.7109955940005994  0.4999610636084877  0.7498873447763934   T   T   T
  0.9973318055471344  0.2903627702183576  0.2862288472428253   T   T   T
  0.9997407605999566  0.2883337588744990  0.7155691463509120   T   T   T
  0.9997407605999566  0.7116662411255013  0.2155691613509098   T   T   T
  0.9973318055471344  0.7096372297816429  0.7862288472428249   T   T   T
  0.5026681944528656  0.2096372447816403  0.2137711677571726   T   T   T
  0.5002592394000434  0.2116662561254989  0.7844308536490880   T   T   T
  0.5002592394000434  0.7883337588744987  0.2844308536490877   T   T   T
  0.5026681944528656  0.7903627702183571  0.7137711527571751   T   T   T
 
  0.00000000E+00  0.00000000E+00  0.00000000E+00
  0.00000000E+00  0.00000000E+00  0.00000000E+00
  0.00000000E+00  0.00000000E+00  0.00000000E+00
  0.00000000E+00  0.00000000E+00  0.00000000E+00
  0.00000000E+00  0.00000000E+00  0.00000000E+00
  0.00000000E+00  0.00000000E+00  0.00000000E+00
  0.00000000E+00  0.00000000E+00  0.00000000E+00
  0.00000000E+00  0.00000000E+00  0.00000000E+00
  0.00000000E+00  0.00000000E+00  0.00000000E+00
  0.00000000E+00  0.00000000E+00  0.00000000E+00
  0.00000000E+00  0.00000000E+00  0.00000000E+00
  0.00000000E+00  0.00000000E+00  0.00000000E+00
  0.00000000E+00  0.00000000E+00  0.00000000E+00
  0.00000000E+00  0.00000000E+00  0.00000000E+00
  0.00000000E+00  0.00000000E+00  0.00000000E+00
  0.00000000E+00  0.00000000E+00  0.00000000E+00
  0.00000000E+00  0.00000000E+00  0.00000000E+00
  0.00000000E+00  0.00000000E+00  0.00000000E+00
  0.00000000E+00  0.00000000E+00  0.00000000E+00
  0.00000000E+00  0.00000000E+00  0.00000000E+00
  0.00000000E+00  0.00000000E+00  0.00000000E+00
  0.00000000E+00  0.00000000E+00  0.00000000E+00
  0.00000000E+00  0.00000000E+00  0.00000000E+00
  0.00000000E+00  0.00000000E+00  0.00000000E+00
  0.00000000E+00  0.00000000E+00  0.00000000E+00
  0.00000000E+00  0.00000000E+00  0.00000000E+00
  0.00000000E+00  0.00000000E+00  0.00000000E+00
  0.00000000E+00  0.00000000E+00  0.00000000E+00
  0.00000000E+00  0.00000000E+00  0.00000000E+00
  0.00000000E+00  0.00000000E+00  0.00000000E+00
  0.00000000E+00  0.00000000E+00  0.00000000E+00
  0.00000000E+00  0.00000000E+00  0.00000000E+00
  0.00000000E+00  0.00000000E+00  0.00000000E+00
  0.00000000E+00  0.00000000E+00  0.00000000E+00
  0.00000000E+00  0.00000000E+00  0.00000000E+00
  0.00000000E+00  0.00000000E+00  0.00000000E+00
  0.00000000E+00  0.00000000E+00  0.00000000E+00
  0.00000000E+00  0.00000000E+00  0.00000000E+00
  0.00000000E+00  0.00000000E+00  0.00000000E+00
  0.00000000E+00  0.00000000E+00  0.00000000E+00
