MASnI3-cubic                            
   1.00000000000000     
    12.5588821018135857    0.0000000000000000    0.0000000000000000
     0.0000000000000000   12.5583715224155501    0.0000000000000000
     0.0000000000000000    0.0000000000000000   12.5579443935593602
   Cs   Sn   I 
     8     8    24
Selective dynamics
Direct
 -0.0000000000000000  0.9807628751976382 -0.0000000000000000   T   T   T
 -0.0000000000000000  0.0192371248023617  0.5000000000000000   T   T   T
 -0.0000000000000000  0.4807710641387796 -0.0000000000000000   T   T   T
 -0.0000000000000000  0.5192289358612169  0.5000000000000000   T   T   T
  0.5000000000000000  0.9807710641387831 -0.0000000000000000   T   T   T
  0.5000000000000000  0.0192289358612193  0.5000000000000000   T   T   T
  0.5000000000000000  0.4807628751976374 -0.0000000000000000   T   T   T
  0.5000000000000000  0.5192371248023618  0.5000000000000000   T   T   T
  0.2500000000000000  0.2500000000000000  0.2500000000000000   T   T   T
  0.2500000000000000  0.2500000000000000  0.7500000000000000   T   T   T
  0.2500000000000000  0.7500000000000000  0.2500000000000000   T   T   T
  0.2500000000000000  0.7500000000000000  0.7500000000000000   T   T   T
  0.7500000000000000  0.2500000000000000  0.2500000000000000   T   T   T
  0.7500000000000000  0.2500000000000000  0.7500000000000000   T   T   T
  0.7500000000000000  0.7500000000000000  0.2500000000000000   T   T   T
  0.7500000000000000  0.7500000000000000  0.7500000000000000   T   T   T
  0.2158418176831346  0.2489494121939376 -0.0000000000000000   T   T   T
  0.2841581973168636  0.2510505878060600  0.5000000000000000   T   T   T
  0.2841581973168636  0.7489494121939387 -0.0000000000000000   T   T   T
  0.2158418176831346  0.7510505878060613  0.5000000000000000   T   T   T
  0.7841581973168669  0.2489494121939376 -0.0000000000000000   T   T   T
  0.7158418026831331  0.2510505878060600  0.5000000000000000   T   T   T
  0.7158418026831331  0.7489494121939387 -0.0000000000000000   T   T   T
  0.7841581973168669  0.7510505878060613  0.5000000000000000   T   T   T
  0.2107689459175489  0.0000000000000000  0.2500000000000000   T   T   T
  0.2107689459175489  0.0000000000000000  0.7500000000000000   T   T   T
  0.2892310690824492  0.5000000000000000  0.2500000000000000   T   T   T
  0.2892310690824492  0.5000000000000000  0.7500000000000000   T   T   T
  0.7892310690824484  0.0000000000000000  0.2500000000000000   T   T   T
  0.7892310690824484  0.0000000000000000  0.7500000000000000   T   T   T
  0.7107689309175516  0.5000000000000000  0.2500000000000000   T   T   T
  0.7107689309175516  0.5000000000000000  0.7500000000000000   T   T   T
 -0.0000000000000000  0.2874792405631290  0.2839067046976489   T   T   T
 -0.0000000000000000  0.2874792405631290  0.7160932953023516   T   T   T
 -0.0000000000000000  0.7125207594368677  0.2160933103023497   T   T   T
 -0.0000000000000000  0.7125207594368677  0.7839067046976484   T   T   T
  0.5000000000000000  0.2125207744368684  0.2160933103023497   T   T   T
  0.5000000000000000  0.2125207744368684  0.7839067046976484   T   T   T
  0.5000000000000000  0.7874792405631323  0.2839067046976489   T   T   T
  0.5000000000000000  0.7874792405631323  0.7160932953023516   T   T   T
 
  0.00000000E+00  0.00000000E+00  0.00000000E+00
  0.00000000E+00  0.00000000E+00  0.00000000E+00
  0.00000000E+00  0.00000000E+00  0.00000000E+00
  0.00000000E+00  0.00000000E+00  0.00000000E+00
  0.00000000E+00  0.00000000E+00  0.00000000E+00
  0.00000000E+00  0.00000000E+00  0.00000000E+00
  0.00000000E+00  0.00000000E+00  0.00000000E+00
  0.00000000E+00  0.00000000E+00  0.00000000E+00
  0.00000000E+00  0.00000000E+00  0.00000000E+00
  0.00000000E+00  0.00000000E+00  0.00000000E+00
  0.00000000E+00  0.00000000E+00  0.00000000E+00
  0.00000000E+00  0.00000000E+00  0.00000000E+00
  0.00000000E+00  0.00000000E+00  0.00000000E+00
  0.00000000E+00  0.00000000E+00  0.00000000E+00
  0.00000000E+00  0.00000000E+00  0.00000000E+00
  0.00000000E+00  0.00000000E+00  0.00000000E+00
  0.00000000E+00  0.00000000E+00  0.00000000E+00
  0.00000000E+00  0.00000000E+00  0.00000000E+00
  0.00000000E+00  0.00000000E+00  0.00000000E+00
  0.00000000E+00  0.00000000E+00  0.00000000E+00
  0.00000000E+00  0.00000000E+00  0.00000000E+00
  0.00000000E+00  0.00000000E+00  0.00000000E+00
  0.00000000E+00  0.00000000E+00  0.00000000E+00
  0.00000000E+00  0.00000000E+00  0.00000000E+00
  0.00000000E+00  0.00000000E+00  0.00000000E+00
  0.00000000E+00  0.00000000E+00  0.00000000E+00
  0.00000000E+00  0.00000000E+00  0.00000000E+00
  0.00000000E+00  0.00000000E+00  0.00000000E+00
  0.00000000E+00  0.00000000E+00  0.00000000E+00
  0.00000000E+00  0.00000000E+00  0.00000000E+00
  0.00000000E+00  0.00000000E+00  0.00000000E+00
  0.00000000E+00  0.00000000E+00  0.00000000E+00
  0.00000000E+00  0.00000000E+00  0.00000000E+00
  0.00000000E+00  0.00000000E+00  0.00000000E+00
  0.00000000E+00  0.00000000E+00  0.00000000E+00
  0.00000000E+00  0.00000000E+00  0.00000000E+00
  0.00000000E+00  0.00000000E+00  0.00000000E+00
  0.00000000E+00  0.00000000E+00  0.00000000E+00
  0.00000000E+00  0.00000000E+00  0.00000000E+00
  0.00000000E+00  0.00000000E+00  0.00000000E+00
