MAPbI3-cubic                            
   1.00000000000000     
    12.5854094931046667    0.0000000000000000    0.0000000000000000
     0.0000000000000000   12.5862407796320799    0.0000000000000000
     0.0000000000000000    0.0000000000000000   12.5870123688816680
   Cs   Pb   Sn   I 
     8     1     7    24
Selective dynamics
Direct
  0.9989763488631636  0.9801146146716447  0.9989033115542526   T   T   T
  0.9985176477099467  0.0184250008507965  0.5010708223846715   T   T   T
  0.9978050185645857  0.4815352754852785  0.9991102904531122   T   T   T
  0.9991609875555952  0.5210239813093686  0.5022234864284356   T   T   T
  0.5008390124444048  0.9789760186906314  0.9977765135715644   T   T   T
  0.5021949814354143  0.0184647245147221  0.5008897095468878   T   T   T
  0.5014823522900533  0.4815749991492044  0.9989291776153285   T   T   T
  0.5010236511368364  0.5198853853283553  0.5010966884457474   T   T   T
  0.2500000000000000  0.2500000000000000  0.2500000000000000   T   T   T
  0.2500000000000000  0.2500000000000000  0.7500000000000000   T   T   T
  0.2500000000000000  0.7500000000000000  0.2500000000000000   T   T   T
  0.2500000000000000  0.7500000000000000  0.7500000000000000   T   T   T
  0.7500000000000000  0.2500000000000000  0.2500000000000000   T   T   T
  0.7500000000000000  0.2500000000000000  0.7500000000000000   T   T   T
  0.7500000000000000  0.7500000000000000  0.2500000000000000   T   T   T
  0.7500000000000000  0.7500000000000000  0.7500000000000000   T   T   T
  0.2104505493867507  0.2492516010712092  0.9973890295967757   T   T   T
  0.2895494656132471  0.2507483989287907  0.5026109704032243   T   T   T
  0.2834131527097712  0.7499507650759478 -0.0001866865744222   T   T   T
  0.2165868622902266  0.7500492349240522  0.5001866865744226   T   T   T
  0.7848286339003880  0.2498364511633461  0.9998881483640367   T   T   T
  0.7151713660996120  0.2501635488366543  0.5001118516359633   T   T   T
  0.7170555294949960  0.7493390646582502  0.9999283963704709   T   T   T
  0.7829444705050040  0.7506609353417498  0.5000716036295291   T   T   T
  0.2051676939173594  0.9973622476444652  0.2501522870445145   T   T   T
  0.2114800029952428 -0.0001968516678723  0.7494689625078886   T   T   T
  0.2948323210826385  0.5026377523555348  0.2498477129554840   T   T   T
  0.2885200120047550  0.5001968516678724  0.7505310374921114   T   T   T
  0.7898545994087760  0.9999180421277839  0.2502303350663936   T   T   T
  0.7878359182745227  0.9999531789409660  0.7499203805784433   T   T   T
  0.7101454005912240  0.5000819578722161  0.2497696649336050   T   T   T
  0.7121640817254773  0.5000468210590340  0.7500796194215567   T   T   T
  0.9974158402874396  0.2908978265355986  0.2867020421647989   T   T   T
 -0.0001977949894048  0.2866105496157771  0.7151990989266666   T   T   T
 -0.0001764762067876  0.7112704279232953  0.2173344421348120   T   T   T
  0.9998724801016766  0.7134791355822556  0.7825542433942838   T   T   T
  0.5025841597125604  0.2091021884643989  0.2132979728351994   T   T   T
  0.5001977949894048  0.2133894653842189  0.7848009010733334   T   T   T
  0.5001764762067874  0.7887295720767047  0.2826655728651833   T   T   T
  0.5001275198983234  0.7865208644177444  0.7174457566057162   T   T   T
 
  0.00000000E+00  0.00000000E+00  0.00000000E+00
  0.00000000E+00  0.00000000E+00  0.00000000E+00
  0.00000000E+00  0.00000000E+00  0.00000000E+00
  0.00000000E+00  0.00000000E+00  0.00000000E+00
  0.00000000E+00  0.00000000E+00  0.00000000E+00
  0.00000000E+00  0.00000000E+00  0.00000000E+00
  0.00000000E+00  0.00000000E+00  0.00000000E+00
  0.00000000E+00  0.00000000E+00  0.00000000E+00
  0.00000000E+00  0.00000000E+00  0.00000000E+00
  0.00000000E+00  0.00000000E+00  0.00000000E+00
  0.00000000E+00  0.00000000E+00  0.00000000E+00
  0.00000000E+00  0.00000000E+00  0.00000000E+00
  0.00000000E+00  0.00000000E+00  0.00000000E+00
  0.00000000E+00  0.00000000E+00  0.00000000E+00
  0.00000000E+00  0.00000000E+00  0.00000000E+00
  0.00000000E+00  0.00000000E+00  0.00000000E+00
  0.00000000E+00  0.00000000E+00  0.00000000E+00
  0.00000000E+00  0.00000000E+00  0.00000000E+00
  0.00000000E+00  0.00000000E+00  0.00000000E+00
  0.00000000E+00  0.00000000E+00  0.00000000E+00
  0.00000000E+00  0.00000000E+00  0.00000000E+00
  0.00000000E+00  0.00000000E+00  0.00000000E+00
  0.00000000E+00  0.00000000E+00  0.00000000E+00
  0.00000000E+00  0.00000000E+00  0.00000000E+00
  0.00000000E+00  0.00000000E+00  0.00000000E+00
  0.00000000E+00  0.00000000E+00  0.00000000E+00
  0.00000000E+00  0.00000000E+00  0.00000000E+00
  0.00000000E+00  0.00000000E+00  0.00000000E+00
  0.00000000E+00  0.00000000E+00  0.00000000E+00
  0.00000000E+00  0.00000000E+00  0.00000000E+00
  0.00000000E+00  0.00000000E+00  0.00000000E+00
  0.00000000E+00  0.00000000E+00  0.00000000E+00
  0.00000000E+00  0.00000000E+00  0.00000000E+00
  0.00000000E+00  0.00000000E+00  0.00000000E+00
  0.00000000E+00  0.00000000E+00  0.00000000E+00
  0.00000000E+00  0.00000000E+00  0.00000000E+00
  0.00000000E+00  0.00000000E+00  0.00000000E+00
  0.00000000E+00  0.00000000E+00  0.00000000E+00
  0.00000000E+00  0.00000000E+00  0.00000000E+00
  0.00000000E+00  0.00000000E+00  0.00000000E+00
