MAPbI3-cubic                            
   1.00000000000000     
    12.6761108043421391    0.0000000000000000    0.0000000000000000
     0.0000000000000000   12.6759743761161463    0.0000000000000000
     0.0000000000000000    0.0000000000000000   12.6762175762429035
   Cs   Pb   Sn   I 
     8     4     4    24
Selective dynamics
Direct
  0.9976187689891950  0.9808253861590788  1.0000020958358555   T   T   T
  0.9976008481172506  0.0148060940798719  0.5000113455132212   T   T   T
  0.9971346767748548  0.4825331303968434  0.9991765201516214   T   T   T
  0.9970382149170836  0.5228070799852220  0.4991795965188929   T   T   T
  0.5029696718161446  0.9771911100126280  0.0008193654276591   T   T   T
  0.5028748205703543  0.0174645884663929  0.5008282440639867   T   T   T
  0.5023952250017506  0.4851782473652430 -0.0000053138320792   T   T   T
  0.5023771336474385  0.5191576777518766  0.4999958102043064   T   T   T
  0.2500389633170490  0.2499517984334374  0.2500151239086929   T   T   T
  0.2499476773960057  0.2499479080528249  0.7500143180454402   T   T   T
  0.2500359785927723  0.7500046437872553  0.2500333638982323   T   T   T
  0.7499982150669776  0.2500255568620462  0.7499668872169007   T   T   T
  0.7500557237892586  0.7501274694327763  0.2499809889974950   T   T   T
  0.7499318405573370  0.7500209966811062  0.7499644797975940   T   T   T
  0.2499259994391476  0.7499106162205795  0.7500464706791403   T   T   T
  0.7500214942490927  0.2501500777180229  0.2499855243571229   T   T   T
  0.2048058505193278  0.2495309980433489 -0.0000616776342001   T   T   T
  0.2951902026622724  0.2504544974165501  0.5000520045778392   T   T   T
  0.2873747629463517  0.7497963997649794  0.9974767092303829   T   T   T
  0.2126290778828218  0.7501848402640857  0.5024943477186532   T   T   T
  0.7894949053284198  0.2494972546240954  0.0025559079580527   T   T   T
  0.7105082241099488  0.2505373679710594  0.4974861445860733   T   T   T
  0.7176998965805438  0.7496015097116021  1.0000624642927469   T   T   T
  0.7823107164755585  0.7504133086256146  0.4999606270505254   T   T   T
  0.2009155761600921  0.9997887168823223  0.2505057956345151   T   T   T
  0.2059669316273962  0.9973098468896618  0.7499313205461623   T   T   T
  0.2990928987975106  0.5002232843531152  0.2495046108694370   T   T   T
  0.2940229373519592  0.5027306158189832  0.7500731324123482   T   T   T
  0.7887099935012029  0.9996342527846990  0.2504312417896376   T   T   T
  0.7929611326197166  0.9972879287468032  0.7498914046358010   T   T   T
  0.7113091260069966  0.5001992685114703  0.2495483403657520   T   T   T
  0.7070289374913904  0.5026873055077709  0.7500978732241169   T   T   T
  0.9973215598919680  0.2909411986230862  0.2884400400030062   T   T   T
 -0.0002127953633874  0.2933520577121423  0.7092888821802584   T   T   T
  0.9973056671454269  0.7094080344889574  0.2149869072105686   T   T   T
  0.9997533582650894  0.7117238696416579  0.7828384839293742   T   T   T
  0.5026464707412569  0.2090768760907586  0.2115532416860655   T   T   T
  0.5002347500550604  0.2066583621940735  0.7906949809929374   T   T   T
  0.5026232054528809  0.7905976242108146  0.2850080912321244   T   T   T
  0.5003414215084712  0.7882622297171357  0.7171643347237360   T   T   T
 
  0.00000000E+00  0.00000000E+00  0.00000000E+00
  0.00000000E+00  0.00000000E+00  0.00000000E+00
  0.00000000E+00  0.00000000E+00  0.00000000E+00
  0.00000000E+00  0.00000000E+00  0.00000000E+00
  0.00000000E+00  0.00000000E+00  0.00000000E+00
  0.00000000E+00  0.00000000E+00  0.00000000E+00
  0.00000000E+00  0.00000000E+00  0.00000000E+00
  0.00000000E+00  0.00000000E+00  0.00000000E+00
  0.00000000E+00  0.00000000E+00  0.00000000E+00
  0.00000000E+00  0.00000000E+00  0.00000000E+00
  0.00000000E+00  0.00000000E+00  0.00000000E+00
  0.00000000E+00  0.00000000E+00  0.00000000E+00
  0.00000000E+00  0.00000000E+00  0.00000000E+00
  0.00000000E+00  0.00000000E+00  0.00000000E+00
  0.00000000E+00  0.00000000E+00  0.00000000E+00
  0.00000000E+00  0.00000000E+00  0.00000000E+00
  0.00000000E+00  0.00000000E+00  0.00000000E+00
  0.00000000E+00  0.00000000E+00  0.00000000E+00
  0.00000000E+00  0.00000000E+00  0.00000000E+00
  0.00000000E+00  0.00000000E+00  0.00000000E+00
  0.00000000E+00  0.00000000E+00  0.00000000E+00
  0.00000000E+00  0.00000000E+00  0.00000000E+00
  0.00000000E+00  0.00000000E+00  0.00000000E+00
  0.00000000E+00  0.00000000E+00  0.00000000E+00
  0.00000000E+00  0.00000000E+00  0.00000000E+00
  0.00000000E+00  0.00000000E+00  0.00000000E+00
  0.00000000E+00  0.00000000E+00  0.00000000E+00
  0.00000000E+00  0.00000000E+00  0.00000000E+00
  0.00000000E+00  0.00000000E+00  0.00000000E+00
  0.00000000E+00  0.00000000E+00  0.00000000E+00
  0.00000000E+00  0.00000000E+00  0.00000000E+00
  0.00000000E+00  0.00000000E+00  0.00000000E+00
  0.00000000E+00  0.00000000E+00  0.00000000E+00
  0.00000000E+00  0.00000000E+00  0.00000000E+00
  0.00000000E+00  0.00000000E+00  0.00000000E+00
  0.00000000E+00  0.00000000E+00  0.00000000E+00
  0.00000000E+00  0.00000000E+00  0.00000000E+00
  0.00000000E+00  0.00000000E+00  0.00000000E+00
  0.00000000E+00  0.00000000E+00  0.00000000E+00
  0.00000000E+00  0.00000000E+00  0.00000000E+00
