MAPbI3-cubic                            
   1.00000000000000     
    12.7442257572524902    0.0000000000000000    0.0000000000000000
     0.0000000000000000   12.7453760118258188    0.0000000000000000
     0.0000000000000000    0.0000000000000000   12.7465242262087397
   Cs   Pb   Sn   I 
     8     7     1    24
Selective dynamics
Direct
  0.0829557463242807  0.0039514863529675  0.0025251074141437   T   T   T
  0.9830558830212226  0.0060248135334646  0.4609827915232714   T   T   T
  0.9917151281053478  0.4746704842862144  0.0029121733756625   T   T   T
  0.0051635101802390  0.5091563535129779  0.5096457421219824   T   T   T
  0.5069490084004755  0.0070950997843937  0.0070324027725022   T   T   T
  0.4864813527801957  0.9674965812761585  0.5061177538519672   T   T   T
  0.4948860136614073  0.5043886749287623  0.9637391894726832   T   T   T
  0.5833660671904042  0.5047213094997147  0.5048036342217443   T   T   T
  0.2522101709754239  0.2591743553187698  0.2576054774551366   T   T   T
  0.2502578413007654  0.2551454632039238  0.7488162600651975   T   T   T
  0.2497442982771574  0.7502388402762534  0.2554632267569019   T   T   T
  0.2516730866808743  0.7516030259023836  0.7510626845010719   T   T   T
  0.7472541228039518  0.2540152758591532  0.2518965097687840   T   T   T
  0.7509245229085835  0.2485583671421807  0.7548266458470891   T   T   T
  0.7491612919261783  0.7558480492669943  0.2487322709323294   T   T   T
  0.7577244291248277  0.7583867661126860  0.7583456583578680   T   T   T
  0.2904831561987322  0.2584750653824344  0.0043714634814478   T   T   T
  0.2956110354306034  0.7549888136062606  0.0050777373257773   T   T   T
  0.1909136431472547  0.2432323814211657  0.5041806212400459   T   T   T
  0.1971258403658425  0.7726519732646153  0.5050081616872077   T   T   T
  0.6980630524908591  0.2638910690683360  0.0044545613429605   T   T   T
  0.6959948534248070  0.7501414814352501  0.0040483601774923   T   T   T
  0.7978203580738779  0.2627102990495587  0.5049612830229506   T   T   T
  0.7894159498012101  0.7533159713974200  0.5097341151038179   T   T   T
  0.2912583676142688  0.0058276748955279  0.2514915163055065   T   T   T
  0.1897828300626614  0.5056916565330809  0.2505819073579261   T   T   T
  0.2960048899012762  0.0046309796955910  0.7619828791746457   T   T   T
  0.1999746192781373  0.5045653479985575  0.7631704750525188   T   T   T
  0.6995984320331985  0.0059273418716757  0.2717073186480334   T   T   T
  0.7969313655801997  0.5063383878497234  0.2567477963899663   T   T   T
  0.6999061526206134  0.0020686396514051  0.7445764148539169   T   T   T
  0.7834043604259904  0.5075293437860040  0.7591704404933566   T   T   T
  0.9962908411445639  0.2136883486173318  0.2106082530181084   T   T   T
  0.9966011747085233  0.8011030962772310  0.2162805850619236   T   T   T
  0.9972380633205660  0.2206002633997457  0.8024299943574036   T   T   T
  0.9898399208331696  0.7878644645477380  0.8010534857847418   T   T   T
  0.4972247013405493  0.2996280197638299  0.2948903322599890   T   T   T
  0.4967989530604200  0.7179630111041249  0.3014445824770817   T   T   T
  0.4972988332311203  0.2970639509105837  0.7145687856723626   T   T   T
  0.4928961322501664  0.7146274722158239  0.7129514012724769   T   T   T
 
  0.00000000E+00  0.00000000E+00  0.00000000E+00
  0.00000000E+00  0.00000000E+00  0.00000000E+00
  0.00000000E+00  0.00000000E+00  0.00000000E+00
  0.00000000E+00  0.00000000E+00  0.00000000E+00
  0.00000000E+00  0.00000000E+00  0.00000000E+00
  0.00000000E+00  0.00000000E+00  0.00000000E+00
  0.00000000E+00  0.00000000E+00  0.00000000E+00
  0.00000000E+00  0.00000000E+00  0.00000000E+00
  0.00000000E+00  0.00000000E+00  0.00000000E+00
  0.00000000E+00  0.00000000E+00  0.00000000E+00
  0.00000000E+00  0.00000000E+00  0.00000000E+00
  0.00000000E+00  0.00000000E+00  0.00000000E+00
  0.00000000E+00  0.00000000E+00  0.00000000E+00
  0.00000000E+00  0.00000000E+00  0.00000000E+00
  0.00000000E+00  0.00000000E+00  0.00000000E+00
  0.00000000E+00  0.00000000E+00  0.00000000E+00
  0.00000000E+00  0.00000000E+00  0.00000000E+00
  0.00000000E+00  0.00000000E+00  0.00000000E+00
  0.00000000E+00  0.00000000E+00  0.00000000E+00
  0.00000000E+00  0.00000000E+00  0.00000000E+00
  0.00000000E+00  0.00000000E+00  0.00000000E+00
  0.00000000E+00  0.00000000E+00  0.00000000E+00
  0.00000000E+00  0.00000000E+00  0.00000000E+00
  0.00000000E+00  0.00000000E+00  0.00000000E+00
  0.00000000E+00  0.00000000E+00  0.00000000E+00
  0.00000000E+00  0.00000000E+00  0.00000000E+00
  0.00000000E+00  0.00000000E+00  0.00000000E+00
  0.00000000E+00  0.00000000E+00  0.00000000E+00
  0.00000000E+00  0.00000000E+00  0.00000000E+00
  0.00000000E+00  0.00000000E+00  0.00000000E+00
  0.00000000E+00  0.00000000E+00  0.00000000E+00
  0.00000000E+00  0.00000000E+00  0.00000000E+00
  0.00000000E+00  0.00000000E+00  0.00000000E+00
  0.00000000E+00  0.00000000E+00  0.00000000E+00
  0.00000000E+00  0.00000000E+00  0.00000000E+00
  0.00000000E+00  0.00000000E+00  0.00000000E+00
  0.00000000E+00  0.00000000E+00  0.00000000E+00
  0.00000000E+00  0.00000000E+00  0.00000000E+00
  0.00000000E+00  0.00000000E+00  0.00000000E+00
  0.00000000E+00  0.00000000E+00  0.00000000E+00
