MAPbI3-cubic                            
   1.00000000000000     
    12.6404844025844145    0.0000000000000000    0.0000000000000000
     0.0000000000000000   12.6410018681250591    0.0000000000000000
     0.0000000000000000    0.0000000000000000   12.6414881907228978
   Cs   Pb   Sn   I 
     8     3     5    24
Selective dynamics
Direct
  0.0781268201263038  0.0039465353043196  0.0037853021216539   T   T   T
  0.9864678704956679  0.0059702173311766  0.4651664086737778   T   T   T
  0.9935076792593313  0.4785813202256677  0.0036836856175709   T   T   T
  0.0044807875942725  0.5090965018036626  0.5088210057316302   T   T   T
  0.5049508303870501  0.0062633642997522  0.0096129979211409   T   T   T
  0.4876194623433763  0.9760092611883706  0.5043546565291028   T   T   T
  0.4950735117557964  0.5042108918508362  0.9682222794167129   T   T   T
  0.5781685593611576  0.5048644247621584  0.5028895299194928   T   T   T
  0.2532147661331154  0.2582113210208775  0.2575520021176095   T   T   T
  0.2508707212307119  0.7522695405854487  0.7513694230542167   T   T   T
  0.7526873801247348  0.2487765910866154  0.7547518576686301   T   T   T
  0.7551501699285743  0.7525234835781208  0.2437506313457743   T   T   T
  0.7563829244363043  0.7584194092447968  0.7535080652977846   T   T   T
  0.2518072348652063  0.2554530418174841  0.7491455212341298   T   T   T
  0.2547737583243891  0.7483944888983675  0.2568168252500357   T   T   T
  0.7471243668802757  0.2490593193728631  0.2513231743761752   T   T   T
  0.2884287013772558  0.2582024208538983  0.0037964261650133   T   T   T
  0.2929491388915882  0.7539521781819712  0.0073819116932927   T   T   T
  0.1962903460619871  0.2445433513616889  0.5082699053974931   T   T   T
  0.1998477285979038  0.7694440056388870  0.5024591575042237   T   T   T
  0.7007515176715687  0.2622909647289770  0.0077242146300805   T   T   T
  0.7004565310692557  0.7496629901553262  0.0090155481716879   T   T   T
  0.7946236081975311  0.2620752568138897  0.5030297296918108   T   T   T
  0.7867678416133516  0.7552831768655109  0.5103434282548474   T   T   T
  0.2844583184088452  0.0039223184134615  0.2533744207380570   T   T   T
  0.1969482366039926  0.5083606339588420  0.2513689040369007   T   T   T
  0.2940826914886272  0.0069015148297963  0.7609511036987354   T   T   T
  0.2035805195359268  0.5020825389411225  0.7621626059339116   T   T   T
  0.7067718081089571  0.0105964811625036  0.2678671606866182   T   T   T
  0.7899590756611079  0.5112262673954777  0.2547381251535925   T   T   T
  0.6975235845240060  0.0016768166913879  0.7460857543600050   T   T   T
  0.7838263209962271  0.5065842176581318  0.7590753470419550   T   T   T
  0.9932589288547405  0.2180525408142577  0.2131887153176361   T   T   T
  0.9890668196521503  0.7941462820014216  0.2155162422763148   T   T   T
  0.9979205573753073  0.2200715706887041  0.7990161294957114   T   T   T
  0.9935729929671914  0.7896941057120339  0.7966767242438686   T   T   T
  0.4992590443066361  0.2919385176272249  0.2950237338442853   T   T   T
  0.4890066151254396  0.7217066712377850  0.2978485626295967   T   T   T
  0.4927548224654668  0.2952147497060216  0.7153250121903304   T   T   T
  0.4974874071986363  0.7153207161911443  0.7150077705686160   T   T   T
 
  0.00000000E+00  0.00000000E+00  0.00000000E+00
  0.00000000E+00  0.00000000E+00  0.00000000E+00
  0.00000000E+00  0.00000000E+00  0.00000000E+00
  0.00000000E+00  0.00000000E+00  0.00000000E+00
  0.00000000E+00  0.00000000E+00  0.00000000E+00
  0.00000000E+00  0.00000000E+00  0.00000000E+00
  0.00000000E+00  0.00000000E+00  0.00000000E+00
  0.00000000E+00  0.00000000E+00  0.00000000E+00
  0.00000000E+00  0.00000000E+00  0.00000000E+00
  0.00000000E+00  0.00000000E+00  0.00000000E+00
  0.00000000E+00  0.00000000E+00  0.00000000E+00
  0.00000000E+00  0.00000000E+00  0.00000000E+00
  0.00000000E+00  0.00000000E+00  0.00000000E+00
  0.00000000E+00  0.00000000E+00  0.00000000E+00
  0.00000000E+00  0.00000000E+00  0.00000000E+00
  0.00000000E+00  0.00000000E+00  0.00000000E+00
  0.00000000E+00  0.00000000E+00  0.00000000E+00
  0.00000000E+00  0.00000000E+00  0.00000000E+00
  0.00000000E+00  0.00000000E+00  0.00000000E+00
  0.00000000E+00  0.00000000E+00  0.00000000E+00
  0.00000000E+00  0.00000000E+00  0.00000000E+00
  0.00000000E+00  0.00000000E+00  0.00000000E+00
  0.00000000E+00  0.00000000E+00  0.00000000E+00
  0.00000000E+00  0.00000000E+00  0.00000000E+00
  0.00000000E+00  0.00000000E+00  0.00000000E+00
  0.00000000E+00  0.00000000E+00  0.00000000E+00
  0.00000000E+00  0.00000000E+00  0.00000000E+00
  0.00000000E+00  0.00000000E+00  0.00000000E+00
  0.00000000E+00  0.00000000E+00  0.00000000E+00
  0.00000000E+00  0.00000000E+00  0.00000000E+00
  0.00000000E+00  0.00000000E+00  0.00000000E+00
  0.00000000E+00  0.00000000E+00  0.00000000E+00
  0.00000000E+00  0.00000000E+00  0.00000000E+00
  0.00000000E+00  0.00000000E+00  0.00000000E+00
  0.00000000E+00  0.00000000E+00  0.00000000E+00
  0.00000000E+00  0.00000000E+00  0.00000000E+00
  0.00000000E+00  0.00000000E+00  0.00000000E+00
  0.00000000E+00  0.00000000E+00  0.00000000E+00
  0.00000000E+00  0.00000000E+00  0.00000000E+00
  0.00000000E+00  0.00000000E+00  0.00000000E+00
