MAPbI3-cubic                            
   1.00000000000000     
    12.6645877547892809    0.0000000000000000    0.0000000000000000
     0.0000000000000000   12.6658479805217130    0.0000000000000000
     0.0000000000000000    0.0000000000000000   12.6715222537481207
   Cs   Pb   Sn   I 
     8     4     4    24
Selective dynamics
Direct
  0.0790867111036704  0.0045342653414693  0.0036973343844622   T   T   T
  0.9851982060631101  0.0044810852094912  0.4626930075654485   T   T   T
  0.9941515251789212  0.4796930161109429  0.0029628141063327   T   T   T
  0.0048126032660534  0.5079686505372507  0.5094105913768701   T   T   T
  0.5048260364769206  0.0108845043852099  0.0086108835492666   T   T   T
  0.4854501034493239  0.9722230986272393  0.5051480210144490   T   T   T
  0.4940156420435713  0.5022798145158163  0.9666275695655173   T   T   T
  0.5795220608737424  0.5034038613599634  0.5043822370245081   T   T   T
  0.2543234583169536  0.2593638554021496  0.2571219980995210   T   T   T
  0.2527043675164080  0.2558431188277623  0.7470751012321415   T   T   T
  0.7520820969917636  0.7569949303959262  0.2481485434134569   T   T   T
  0.7541584530728755  0.7589578506737737  0.7582254765483185   T   T   T
  0.2555292046120670  0.7490970611352807  0.2502475033626794   T   T   T
  0.2482606364401221  0.7530930705895997  0.7465905290450934   T   T   T
  0.7485942345617289  0.2541591433532702  0.2456057206825619   T   T   T
  0.7561734759077510  0.2491402943426024  0.7495681065238884   T   T   T
  0.2875449851792027  0.2587485691639984  0.0034663111378350   T   T   T
  0.2933969314974263  0.7529938893777341  0.0125948562299740   T   T   T
  0.1908871684273805  0.2434566609649877  0.5031915831777098   T   T   T
  0.2027812941576599  0.7696744017278334  0.5119869552841720   T   T   T
  0.7050211711368419  0.2622904385602354  0.0104762164057846   T   T   T
  0.6887754569834641  0.7505152777827178  0.0044059346877461   T   T   T
  0.7939537219432040  0.2595387872218566  0.5115511506915524   T   T   T
  0.7908786024563597  0.7518765933842317  0.5046744912954821   T   T   T
  0.2866232801177517  0.0049246146802560  0.2536502217022800   T   T   T
  0.1963676937701422  0.5094182796601885  0.2506971078656761   T   T   T
  0.2933008574244198  0.0026138758876471  0.7628489456685230   T   T   T
  0.2045256690653048  0.5074405407390117  0.7614978152020200   T   T   T
  0.7027655713034946  0.0081880213545702  0.2693572100396793   T   T   T
  0.7933991666848357  0.5033126721015364  0.2562605757446406   T   T   T
  0.6987225233241574  0.0082617890699694  0.7438192923842024   T   T   T
  0.7828289825785859  0.5036900449469002  0.7602651141794894   T   T   T
  0.9918207095531386  0.2171857487072515  0.2125471811999731   T   T   T
  0.9968707156417622  0.7970101509111487  0.2168461351732347   T   T   T
  0.9932906747827701  0.2203233821904789  0.7983550160427697   T   T   T
  0.9977495826796741  0.7858969981991706  0.8021659558896772   T   T   T
  0.4980547751216733  0.2954873287652120  0.2924738996233884   T   T   T
  0.4923775105989776  0.7188763043485338  0.3001969838167255   T   T   T
  0.4977462493286779  0.2948753884934732  0.7174043967068755   T   T   T
  0.4914278903680653  0.7162826209532795  0.7131512123560952   T   T   T
 
  0.00000000E+00  0.00000000E+00  0.00000000E+00
  0.00000000E+00  0.00000000E+00  0.00000000E+00
  0.00000000E+00  0.00000000E+00  0.00000000E+00
  0.00000000E+00  0.00000000E+00  0.00000000E+00
  0.00000000E+00  0.00000000E+00  0.00000000E+00
  0.00000000E+00  0.00000000E+00  0.00000000E+00
  0.00000000E+00  0.00000000E+00  0.00000000E+00
  0.00000000E+00  0.00000000E+00  0.00000000E+00
  0.00000000E+00  0.00000000E+00  0.00000000E+00
  0.00000000E+00  0.00000000E+00  0.00000000E+00
  0.00000000E+00  0.00000000E+00  0.00000000E+00
  0.00000000E+00  0.00000000E+00  0.00000000E+00
  0.00000000E+00  0.00000000E+00  0.00000000E+00
  0.00000000E+00  0.00000000E+00  0.00000000E+00
  0.00000000E+00  0.00000000E+00  0.00000000E+00
  0.00000000E+00  0.00000000E+00  0.00000000E+00
  0.00000000E+00  0.00000000E+00  0.00000000E+00
  0.00000000E+00  0.00000000E+00  0.00000000E+00
  0.00000000E+00  0.00000000E+00  0.00000000E+00
  0.00000000E+00  0.00000000E+00  0.00000000E+00
  0.00000000E+00  0.00000000E+00  0.00000000E+00
  0.00000000E+00  0.00000000E+00  0.00000000E+00
  0.00000000E+00  0.00000000E+00  0.00000000E+00
  0.00000000E+00  0.00000000E+00  0.00000000E+00
  0.00000000E+00  0.00000000E+00  0.00000000E+00
  0.00000000E+00  0.00000000E+00  0.00000000E+00
  0.00000000E+00  0.00000000E+00  0.00000000E+00
  0.00000000E+00  0.00000000E+00  0.00000000E+00
  0.00000000E+00  0.00000000E+00  0.00000000E+00
  0.00000000E+00  0.00000000E+00  0.00000000E+00
  0.00000000E+00  0.00000000E+00  0.00000000E+00
  0.00000000E+00  0.00000000E+00  0.00000000E+00
  0.00000000E+00  0.00000000E+00  0.00000000E+00
  0.00000000E+00  0.00000000E+00  0.00000000E+00
  0.00000000E+00  0.00000000E+00  0.00000000E+00
  0.00000000E+00  0.00000000E+00  0.00000000E+00
  0.00000000E+00  0.00000000E+00  0.00000000E+00
  0.00000000E+00  0.00000000E+00  0.00000000E+00
  0.00000000E+00  0.00000000E+00  0.00000000E+00
  0.00000000E+00  0.00000000E+00  0.00000000E+00
