MAPbI3-cubic                            
   1.00000000000000     
    12.5854094931046667    0.0000000000000000    0.0000000000000000
     0.0000000000000000   12.5862407796320799    0.0000000000000000
     0.0000000000000000    0.0000000000000000   12.5870123688816680
   Cs   Pb   Sn   I 
     8     1     7    24
Selective dynamics
Direct
  0.0741814658090618  0.0058633850226002  0.0041406512176962   T   T   T
  0.9890902406332955  0.0061842532126377  0.4688114872914824   T   T   T
  0.9964368101849743  0.4829323599152389  0.0031241720432362   T   T   T
  0.0047934007716108  0.5057993179537590  0.5077539732354595   T   T   T
  0.5034376940911329  0.0102820845634568  0.0093001573954652   T   T   T
  0.4858852807974188  0.9779008701219780  0.5044343845471246   T   T   T
  0.4934439250975942  0.5029975915080414  0.9725391816736533   T   T   T
  0.5747163597667111  0.5027656079980218  0.5028217210871588   T   T   T
  0.7527425969836656  0.7576922420822640  0.7571348465344201   T   T   T
  0.2583965504707280  0.2571564235169816  0.2545157677401662   T   T   T
  0.2549160526360481  0.2536746863552253  0.7451465662707122   T   T   T
  0.2561911605167353  0.7467771957187068  0.2529044719878399   T   T   T
  0.2468994187681091  0.7506737807287251  0.7488438560082216   T   T   T
  0.7516829901019122  0.2493480616125012  0.2473466293650475   T   T   T
  0.7563398484696222  0.2482584992783785  0.7527066235240625   T   T   T
  0.7555131850471497  0.7538362376677057  0.2478788084487817   T   T   T
  0.2817939531630103  0.2602915665161234  0.0078974168944868   T   T   T
  0.2924174156439534  0.7548174466164994  0.0105570980008096   T   T   T
  0.2036012960660187  0.2453247450892633  0.5069641348732787   T   T   T
  0.2027914771161434  0.7680944854440312  0.5099797588118733   T   T   T
  0.7055583350855628  0.2609029362692965  0.0068792776003406   T   T   T
  0.6940359850019178  0.7507701271860157  0.0079939736542016   T   T   T
  0.7907387116234545  0.2594585387374977  0.5073704938477093   T   T   T
  0.7903163020472874  0.7531882500344622  0.5034785162676272   T   T   T
  0.2818443100229544  0.0088271223607919  0.2548219750155241   T   T   T
  0.2025935688278793  0.5079351968623911  0.2517935762920729   T   T   T
  0.2901770217050696  0.0076582250226807  0.7614660059312968   T   T   T
  0.2080527646202484  0.5071351730565965  0.7604949097715590   T   T   T
  0.7066941872784582  0.0082262421050245  0.2668397693521740   T   T   T
  0.7891168577857073  0.5084498623053264  0.2537106444462083   T   T   T
  0.6976243450818700  0.0073252856596966  0.7450918459709683   T   T   T
  0.7834663465289751  0.5026010289461595  0.7589904837808206   T   T   T
  0.9910715574834725  0.2198459348320156  0.2165725438234958   T   T   T
  0.9912646787191619  0.7931377932224635  0.2159023790255006   T   T   T
  0.9920622918171418  0.2196688729995770  0.7930902428984723   T   T   T
  0.9998447917405571  0.7857197697977867  0.8016891967986410   T   T   T
  0.4931043019428358  0.2918738007877693  0.2887196703630153   T   T   T
  0.4915314872471583  0.7220721383340418  0.2980608304431627   T   T   T
  0.4916909809100645  0.2927324972242218  0.7183833496942142   T   T   T
  0.4939400523952955  0.7168003633340376  0.7138486080720199   T   T   T
 
  0.00000000E+00  0.00000000E+00  0.00000000E+00
  0.00000000E+00  0.00000000E+00  0.00000000E+00
  0.00000000E+00  0.00000000E+00  0.00000000E+00
  0.00000000E+00  0.00000000E+00  0.00000000E+00
  0.00000000E+00  0.00000000E+00  0.00000000E+00
  0.00000000E+00  0.00000000E+00  0.00000000E+00
  0.00000000E+00  0.00000000E+00  0.00000000E+00
  0.00000000E+00  0.00000000E+00  0.00000000E+00
  0.00000000E+00  0.00000000E+00  0.00000000E+00
  0.00000000E+00  0.00000000E+00  0.00000000E+00
  0.00000000E+00  0.00000000E+00  0.00000000E+00
  0.00000000E+00  0.00000000E+00  0.00000000E+00
  0.00000000E+00  0.00000000E+00  0.00000000E+00
  0.00000000E+00  0.00000000E+00  0.00000000E+00
  0.00000000E+00  0.00000000E+00  0.00000000E+00
  0.00000000E+00  0.00000000E+00  0.00000000E+00
  0.00000000E+00  0.00000000E+00  0.00000000E+00
  0.00000000E+00  0.00000000E+00  0.00000000E+00
  0.00000000E+00  0.00000000E+00  0.00000000E+00
  0.00000000E+00  0.00000000E+00  0.00000000E+00
  0.00000000E+00  0.00000000E+00  0.00000000E+00
  0.00000000E+00  0.00000000E+00  0.00000000E+00
  0.00000000E+00  0.00000000E+00  0.00000000E+00
  0.00000000E+00  0.00000000E+00  0.00000000E+00
  0.00000000E+00  0.00000000E+00  0.00000000E+00
  0.00000000E+00  0.00000000E+00  0.00000000E+00
  0.00000000E+00  0.00000000E+00  0.00000000E+00
  0.00000000E+00  0.00000000E+00  0.00000000E+00
  0.00000000E+00  0.00000000E+00  0.00000000E+00
  0.00000000E+00  0.00000000E+00  0.00000000E+00
  0.00000000E+00  0.00000000E+00  0.00000000E+00
  0.00000000E+00  0.00000000E+00  0.00000000E+00
  0.00000000E+00  0.00000000E+00  0.00000000E+00
  0.00000000E+00  0.00000000E+00  0.00000000E+00
  0.00000000E+00  0.00000000E+00  0.00000000E+00
  0.00000000E+00  0.00000000E+00  0.00000000E+00
  0.00000000E+00  0.00000000E+00  0.00000000E+00
  0.00000000E+00  0.00000000E+00  0.00000000E+00
  0.00000000E+00  0.00000000E+00  0.00000000E+00
  0.00000000E+00  0.00000000E+00  0.00000000E+00
