MAPbI3-cubic                            
   1.00000000000000     
    12.6934216067070640    0.0000000000000000    0.0000000000000000
     0.0000000000000000   12.6942802903675620    0.0000000000000000
     0.0000000000000000    0.0000000000000000   12.6950893721022808
   Cs   Pb   Sn   I 
     8     5     3    24
Selective dynamics
Direct
  0.0808373396061128  0.0031827091071648  0.0016166766580596   T   T   T
  0.9834101062337552  0.0050480381889955  0.4644232695790365   T   T   T
  0.9922318126271321  0.4793201050238451  0.0018348722489137   T   T   T
  0.0042560033245351  0.5098230608842869  0.5110877952626538   T   T   T
  0.5054023652008155  0.0076792918523410  0.0065658958796320   T   T   T
  0.4879047216537629  0.9703290360600434  0.5049583657739944   T   T   T
  0.4948858732297197  0.5032979907655175  0.9660663593742100   T   T   T
  0.5808118020010085  0.5048226099712281  0.5049414197262507   T   T   T
  0.2505762642710181  0.2591001426126667  0.2575723896085691   T   T   T
  0.2531420735946668  0.2558516065211336  0.7478796559045975   T   T   T
  0.2534503561975825  0.7492687829238562  0.2564092858400073   T   T   T
  0.7469255465667786  0.2531594127001071  0.2516036121009222   T   T   T
  0.7566252421889388  0.7587334079810262  0.7585524787141367   T   T   T
  0.2514972985923478  0.7524109353872390  0.7520571145862860   T   T   T
  0.7535727205198839  0.2489841369174641  0.7554145414929749   T   T   T
  0.7528904886814445  0.7556212439996131  0.2486182061911322   T   T   T
  0.2892262159366510  0.2579175533306142  0.0035475860350189   T   T   T
  0.2938259602641082  0.7537498401534890  0.0039338565902582   T   T   T
  0.1893512311365910  0.2437544617904095  0.5038188444642131   T   T   T
  0.2015762633619858  0.7703474653461768  0.5087041814343038   T   T   T
  0.7008954398525731  0.2625381798727275  0.0024040426548311   T   T   T
  0.6965176895820235  0.7501784263797973  0.0098607777132642   T   T   T
  0.7949393487256131  0.2617920747337052  0.5075490043823336   T   T   T
  0.7881367470142351  0.7537180633299414  0.5059316790585981   T   T   T
  0.2899141300652559  0.0050012154140191  0.2516559283459614   T   T   T
  0.1887012107038046  0.5053319140677530  0.2509229407216367   T   T   T
  0.2931851679206616  0.0025642102014558  0.7603372418401477   T   T   T
  0.2056892785404258  0.5072860883604164  0.7619480307297621   T   T   T
  0.7024570632186524  0.0043202278447154  0.2692114276582274   T   T   T
  0.7942884049227956  0.5093946099438327  0.2556980302392020   T   T   T
  0.7007570009173136  0.0085477293365699  0.7448351971052034   T   T   T
  0.7818838047724483  0.5044677472874568  0.7596853259252327   T   T   T
  0.9964970763497405  0.2136062917891195  0.2103516137526213   T   T   T
  0.9905577173547471  0.7986762449876750  0.2170430142871069   T   T   T
  0.9911952426169677  0.2215580582299737  0.7996290114991993   T   T   T
  0.9994802274084691  0.7853754463786231  0.8003139997092035   T   T   T
  0.4969708401887019  0.2986800704740773  0.2940951567551693   T   T   T
  0.4961639339358541  0.7182545090322350  0.2993648194274741   T   T   T
  0.4964569625228705  0.2941325990211823  0.7143773345327702   T   T   T
  0.4929130281979610  0.7171744617975264  0.7151790161968705   T   T   T
 
  0.00000000E+00  0.00000000E+00  0.00000000E+00
  0.00000000E+00  0.00000000E+00  0.00000000E+00
  0.00000000E+00  0.00000000E+00  0.00000000E+00
  0.00000000E+00  0.00000000E+00  0.00000000E+00
  0.00000000E+00  0.00000000E+00  0.00000000E+00
  0.00000000E+00  0.00000000E+00  0.00000000E+00
  0.00000000E+00  0.00000000E+00  0.00000000E+00
  0.00000000E+00  0.00000000E+00  0.00000000E+00
  0.00000000E+00  0.00000000E+00  0.00000000E+00
  0.00000000E+00  0.00000000E+00  0.00000000E+00
  0.00000000E+00  0.00000000E+00  0.00000000E+00
  0.00000000E+00  0.00000000E+00  0.00000000E+00
  0.00000000E+00  0.00000000E+00  0.00000000E+00
  0.00000000E+00  0.00000000E+00  0.00000000E+00
  0.00000000E+00  0.00000000E+00  0.00000000E+00
  0.00000000E+00  0.00000000E+00  0.00000000E+00
  0.00000000E+00  0.00000000E+00  0.00000000E+00
  0.00000000E+00  0.00000000E+00  0.00000000E+00
  0.00000000E+00  0.00000000E+00  0.00000000E+00
  0.00000000E+00  0.00000000E+00  0.00000000E+00
  0.00000000E+00  0.00000000E+00  0.00000000E+00
  0.00000000E+00  0.00000000E+00  0.00000000E+00
  0.00000000E+00  0.00000000E+00  0.00000000E+00
  0.00000000E+00  0.00000000E+00  0.00000000E+00
  0.00000000E+00  0.00000000E+00  0.00000000E+00
  0.00000000E+00  0.00000000E+00  0.00000000E+00
  0.00000000E+00  0.00000000E+00  0.00000000E+00
  0.00000000E+00  0.00000000E+00  0.00000000E+00
  0.00000000E+00  0.00000000E+00  0.00000000E+00
  0.00000000E+00  0.00000000E+00  0.00000000E+00
  0.00000000E+00  0.00000000E+00  0.00000000E+00
  0.00000000E+00  0.00000000E+00  0.00000000E+00
  0.00000000E+00  0.00000000E+00  0.00000000E+00
  0.00000000E+00  0.00000000E+00  0.00000000E+00
  0.00000000E+00  0.00000000E+00  0.00000000E+00
  0.00000000E+00  0.00000000E+00  0.00000000E+00
  0.00000000E+00  0.00000000E+00  0.00000000E+00
  0.00000000E+00  0.00000000E+00  0.00000000E+00
  0.00000000E+00  0.00000000E+00  0.00000000E+00
  0.00000000E+00  0.00000000E+00  0.00000000E+00
