MAPbI3-cubic                            
   1.00000000000000     
    12.7273920064353483    0.0000000000000000    0.0000000000000000
     0.0000000000000000   12.7255557418288170    0.0000000000000000
     0.0000000000000000    0.0000000000000000   12.7253615997762513
   Cs   Pb   Sn   I 
     8     6     2    24
Selective dynamics
Direct
  0.0829073125885529  0.0028060551189810  0.0031419364074026   T   T   T
  0.9836936362945252  0.0062313434216392  0.4597985196811649   T   T   T
  0.9887897932863225  0.4742841537554625  0.0040864859342591   T   T   T
  0.0044467758273754  0.5099246803312170  0.5102005472419933   T   T   T
  0.5070525996374258  0.0058324318002505  0.0094792484748183   T   T   T
  0.4892183736223714  0.9716116757833362  0.5044024705726144   T   T   T
  0.4942342355480704  0.5052438988161683  0.9605035452355324   T   T   T
  0.5829396182547129  0.5062885359863785  0.5039754474862974   T   T   T
  0.2507930046265798  0.2586299957526847  0.2577483120580695   T   T   T
  0.2500350397386555  0.2550699024440135  0.7492997792791556   T   T   T
  0.2536050427499319  0.7483595620746755  0.2565844666445898   T   T   T
  0.2524342892618847  0.7520854227681752  0.7506943897562337   T   T   T
  0.7454970313218041  0.2522367308128608  0.2519721774272341   T   T   T
  0.7507171676435860  0.2491018056585617  0.7544390166531016   T   T   T
  0.7525264034423671  0.7543534251773920  0.2429507854932709   T   T   T
  0.7601108366676570  0.7591004466039948  0.7526327630177434   T   T   T
  0.2931570942265438  0.2567773195144341  0.0048123517738716   T   T   T
  0.2961358826104714  0.7556285892491132  0.0047062653238044   T   T   T
  0.1885023555628322  0.2441414640935164  0.5045913945666953   T   T   T
  0.1960596336769029  0.7712430494136626  0.5044162120900282   T   T   T
  0.6964310265773932  0.2655507671432673  0.0044953135449504   T   T   T
  0.7009088445275182  0.7486587554569653  0.0118545925492555   T   T   T
  0.7987063582836385  0.2628966359571692  0.5046820937273537   T   T   T
  0.7885045805623534  0.7554092013767573  0.5139240055808614   T   T   T
  0.2869539321664831  0.0047463536323704  0.2527848232772456   T   T   T
  0.1892826627373481  0.5047815197216963  0.2499173119107923   T   T   T
  0.2977844688704607  0.0047297641562167  0.7611515499839214   T   T   T
  0.2001404661391675  0.5046538004921501  0.7653218896639586   T   T   T
  0.7041183352439901  0.0048960038488417  0.2692840551389679   T   T   T
  0.7928768173399945  0.5102564070750191  0.2574329100704134   T   T   T
  0.6991543306721653  0.0028169959464179  0.7459827541966249   T   T   T
  0.7840738876063114  0.5079848754998366  0.7588144808257979   T   T   T
  0.9958334287542741  0.2147255187292814  0.2090318567999461   T   T   T
  0.9887634271568402  0.7970386060126700  0.2148073652661253   T   T   T
  0.9973782802670925  0.2200957072438925  0.8039911110702249   T   T   T
  0.9923575503284425  0.7906010313269931  0.7975927012838895   T   T   T
  0.4966857019710531  0.2930812315099374  0.3009823217480943   T   T   T
  0.4944534170125223  0.7201559018730777  0.3008110624199247   T   T   T
  0.4974273973560344  0.2977746046344265  0.7129323032980892   T   T   T
  0.4953089598383116  0.7151958297864880  0.7137693825257116   T   T   T
 
  0.00000000E+00  0.00000000E+00  0.00000000E+00
  0.00000000E+00  0.00000000E+00  0.00000000E+00
  0.00000000E+00  0.00000000E+00  0.00000000E+00
  0.00000000E+00  0.00000000E+00  0.00000000E+00
  0.00000000E+00  0.00000000E+00  0.00000000E+00
  0.00000000E+00  0.00000000E+00  0.00000000E+00
  0.00000000E+00  0.00000000E+00  0.00000000E+00
  0.00000000E+00  0.00000000E+00  0.00000000E+00
  0.00000000E+00  0.00000000E+00  0.00000000E+00
  0.00000000E+00  0.00000000E+00  0.00000000E+00
  0.00000000E+00  0.00000000E+00  0.00000000E+00
  0.00000000E+00  0.00000000E+00  0.00000000E+00
  0.00000000E+00  0.00000000E+00  0.00000000E+00
  0.00000000E+00  0.00000000E+00  0.00000000E+00
  0.00000000E+00  0.00000000E+00  0.00000000E+00
  0.00000000E+00  0.00000000E+00  0.00000000E+00
  0.00000000E+00  0.00000000E+00  0.00000000E+00
  0.00000000E+00  0.00000000E+00  0.00000000E+00
  0.00000000E+00  0.00000000E+00  0.00000000E+00
  0.00000000E+00  0.00000000E+00  0.00000000E+00
  0.00000000E+00  0.00000000E+00  0.00000000E+00
  0.00000000E+00  0.00000000E+00  0.00000000E+00
  0.00000000E+00  0.00000000E+00  0.00000000E+00
  0.00000000E+00  0.00000000E+00  0.00000000E+00
  0.00000000E+00  0.00000000E+00  0.00000000E+00
  0.00000000E+00  0.00000000E+00  0.00000000E+00
  0.00000000E+00  0.00000000E+00  0.00000000E+00
  0.00000000E+00  0.00000000E+00  0.00000000E+00
  0.00000000E+00  0.00000000E+00  0.00000000E+00
  0.00000000E+00  0.00000000E+00  0.00000000E+00
  0.00000000E+00  0.00000000E+00  0.00000000E+00
  0.00000000E+00  0.00000000E+00  0.00000000E+00
  0.00000000E+00  0.00000000E+00  0.00000000E+00
  0.00000000E+00  0.00000000E+00  0.00000000E+00
  0.00000000E+00  0.00000000E+00  0.00000000E+00
  0.00000000E+00  0.00000000E+00  0.00000000E+00
  0.00000000E+00  0.00000000E+00  0.00000000E+00
  0.00000000E+00  0.00000000E+00  0.00000000E+00
  0.00000000E+00  0.00000000E+00  0.00000000E+00
  0.00000000E+00  0.00000000E+00  0.00000000E+00
