MAPbI3-cubic                            
   1.00000000000000     
    12.6668917163625814    0.0000000000000000    0.0000000000000000
     0.0000000000000000   12.6663491202548339    0.0000000000000000
     0.0000000000000000    0.0000000000000000   12.6658893601496327
   Cs   Pb   Sn   I 
     8     4     4    24
Selective dynamics
Direct
  0.0800221530236007  0.0023359191825184  0.0006954496393933   T   T   T
  0.9826946838400834  0.0049151349732648  0.4651070312997378   T   T   T
  0.9908062945067739  0.4789248220675951  0.0024078398849406   T   T   T
  0.0041421673687300  0.5102753798604576  0.5114360181893722   T   T   T
  0.5062761139989661  0.0065612235583527  0.0057363087518597   T   T   T
  0.4886318698511908  0.9719400536942255  0.5056944042637055   T   T   T
  0.4955612162257752  0.5039357974708024  0.9670575054164471   T   T   T
  0.5802402941489194  0.5054817411293954  0.5057386158095453   T   T   T
  0.2502661633213192  0.2590786352591456  0.2571262498683396   T   T   T
  0.2523809828130078  0.2551850907014161  0.7480847452508268   T   T   T
  0.2524392766251606  0.7495275528956241  0.2555811107599660   T   T   T
  0.7463711837069729  0.2530466619911526  0.2514469857431003   T   T   T
  0.7522440172890985  0.2455119427502770  0.7546811396776275   T   T   T
  0.7509478726903721  0.7551525397971059  0.2458334184210637   T   T   T
  0.7618433997512172  0.7551931188920286  0.7558231591632987   T   T   T
  0.2545719625556921  0.7508551662372915  0.7501145719478842   T   T   T
  0.2905968158028879  0.2578566702224273  0.0034921314080040   T   T   T
  0.2930651350466118  0.7536252392588150  0.0032040232467932   T   T   T
  0.1885521538519504  0.2431975156102780  0.5036702656871337   T   T   T
  0.2011479234323851  0.7705145955053103  0.5080294265456274   T   T   T
  0.7007522601260657  0.2630889521515503  0.0022738603852071   T   T   T
  0.7008038774626534  0.7505571588463925  0.0110359182730926   T   T   T
  0.7953144540813400  0.2622849973176328  0.5076918563005315   T   T   T
  0.7869827606134925  0.7544700033962143  0.5127195102515729   T   T   T
  0.2912945782068062  0.0051048516283997  0.2510930976250417   T   T   T
  0.1877505432858996  0.5053658613262346  0.2505764252306801   T   T   T
  0.2930775817922009  0.0024642313526421  0.7602412642035654   T   T   T
  0.2048469870799838  0.5072777685888926  0.7619718848464091   T   T   T
  0.7019049095431942  0.0039566405456578  0.2699541919170091   T   T   T
  0.7945379786272223  0.5092939630716470  0.2570354646478449   T   T   T
  0.7054120014778058  0.0091171927701157  0.7457092579228459   T   T   T
  0.7802089507800539  0.5104924157110240  0.7605757976878745   T   T   T
  0.9965970445130589  0.2127549972005819  0.2093480022914113   T   T   T
  0.9913877914440785  0.7989081970054427  0.2174011045385565   T   T   T
  0.9921007420733743  0.2221425335101675  0.8000241736365782   T   T   T
  0.9928240776962886  0.7845841696686593  0.7974262820745032   T   T   T
  0.4971778098231350  0.2996730481636333  0.2948369623470814   T   T   T
  0.4968644420950915  0.7179269584454094  0.2992944819107116   T   T   T
  0.4972052633646987  0.2941034992891772  0.7138618920312119   T   T   T
  0.4901542660627947  0.7183177589530481  0.7159681709036337   T   T   T
 
  0.00000000E+00  0.00000000E+00  0.00000000E+00
  0.00000000E+00  0.00000000E+00  0.00000000E+00
  0.00000000E+00  0.00000000E+00  0.00000000E+00
  0.00000000E+00  0.00000000E+00  0.00000000E+00
  0.00000000E+00  0.00000000E+00  0.00000000E+00
  0.00000000E+00  0.00000000E+00  0.00000000E+00
  0.00000000E+00  0.00000000E+00  0.00000000E+00
  0.00000000E+00  0.00000000E+00  0.00000000E+00
  0.00000000E+00  0.00000000E+00  0.00000000E+00
  0.00000000E+00  0.00000000E+00  0.00000000E+00
  0.00000000E+00  0.00000000E+00  0.00000000E+00
  0.00000000E+00  0.00000000E+00  0.00000000E+00
  0.00000000E+00  0.00000000E+00  0.00000000E+00
  0.00000000E+00  0.00000000E+00  0.00000000E+00
  0.00000000E+00  0.00000000E+00  0.00000000E+00
  0.00000000E+00  0.00000000E+00  0.00000000E+00
  0.00000000E+00  0.00000000E+00  0.00000000E+00
  0.00000000E+00  0.00000000E+00  0.00000000E+00
  0.00000000E+00  0.00000000E+00  0.00000000E+00
  0.00000000E+00  0.00000000E+00  0.00000000E+00
  0.00000000E+00  0.00000000E+00  0.00000000E+00
  0.00000000E+00  0.00000000E+00  0.00000000E+00
  0.00000000E+00  0.00000000E+00  0.00000000E+00
  0.00000000E+00  0.00000000E+00  0.00000000E+00
  0.00000000E+00  0.00000000E+00  0.00000000E+00
  0.00000000E+00  0.00000000E+00  0.00000000E+00
  0.00000000E+00  0.00000000E+00  0.00000000E+00
  0.00000000E+00  0.00000000E+00  0.00000000E+00
  0.00000000E+00  0.00000000E+00  0.00000000E+00
  0.00000000E+00  0.00000000E+00  0.00000000E+00
  0.00000000E+00  0.00000000E+00  0.00000000E+00
  0.00000000E+00  0.00000000E+00  0.00000000E+00
  0.00000000E+00  0.00000000E+00  0.00000000E+00
  0.00000000E+00  0.00000000E+00  0.00000000E+00
  0.00000000E+00  0.00000000E+00  0.00000000E+00
  0.00000000E+00  0.00000000E+00  0.00000000E+00
  0.00000000E+00  0.00000000E+00  0.00000000E+00
  0.00000000E+00  0.00000000E+00  0.00000000E+00
  0.00000000E+00  0.00000000E+00  0.00000000E+00
  0.00000000E+00  0.00000000E+00  0.00000000E+00
