MAPbI3-cubic                            
   1.00000000000000     
    12.6118942286929201    0.0000000000000000    0.0000000000000000
     0.0000000000000000   12.6128929833012755    0.0000000000000000
     0.0000000000000000    0.0000000000000000   12.6136989532600516
   Cs   Pb   Sn   I 
     8     2     6    24
Selective dynamics
Direct
  0.0770031488984060  0.0049084704539908  0.0030499188056510   T   T   T
  0.9845619347136818  0.0061030068211352  0.4665001881228008   T   T   T
  0.9920559681053192  0.4805232928948158  0.0035285829953722   T   T   T
  0.0038354937148668  0.5076794703666465  0.5090010415638844   T   T   T
  0.5053763552018822  0.0087745046024352  0.0075282540949502   T   T   T
  0.4891615195264052  0.9754066310463330  0.5053254433909942   T   T   T
  0.4963720456906984  0.5035953011912397  0.9710454293255211   T   T   T
  0.5767092188018594  0.5040108560598426  0.5042096175663247   T   T   T
  0.2524715029589544  0.2583118897947685  0.2568563348941666   T   T   T
  0.2510254123907032  0.7521476833985972  0.7512707075294713   T   T   T
  0.7457563421141913  0.2498894211396632  0.2480875780248368   T   T   T
  0.7561745661606167  0.2448048070824385  0.7518883831500176   T   T   T
  0.7546489351284009  0.7529698930787561  0.2443663189964624   T   T   T
  0.7577082839707074  0.7542957438035103  0.7544311097031482   T   T   T
  0.2548335590726367  0.2563338815461478  0.7476646830084803   T   T   T
  0.2546053959091026  0.7490855409521302  0.2566685220989555   T   T   T
  0.2865091515472997  0.2593574135136265  0.0026977897837384   T   T   T
  0.2945349303349403  0.7537641256214087  0.0075992158465255   T   T   T
  0.1968153640709502  0.2441308989586020  0.5072273063170911   T   T   T
  0.1986105381266228  0.7699581379139460  0.5026615338630478   T   T   T
  0.7055140711200920  0.2617391256040307  0.0086028118056092   T   T   T
  0.6993910711760094  0.7504601401706950  0.0088360557409359   T   T   T
  0.7916355007131628  0.2607574792593965  0.5093391575326933   T   T   T
  0.7876469528152370  0.7546067124708813  0.5102990257561046   T   T   T
  0.2871505352790749  0.0044056583975802  0.2525072601792928   T   T   T
  0.1956036901098841  0.5088564695613584  0.2513489463295997   T   T   T
  0.2938209680535948  0.0064978658255370  0.7607036929978221   T   T   T
  0.2030055303871023  0.5016677206241411  0.7611196930767079   T   T   T
  0.7057513312167458  0.0100298980886535  0.2671198547069267   T   T   T
  0.7902771921332175  0.5104708290874882  0.2558431641679135   T   T   T
  0.7045295935501343  0.0075555372839275  0.7455919762485692   T   T   T
  0.7806915371377201  0.5084374299602388  0.7604051882844729   T   T   T
  0.9936879073472582  0.2176574640984299  0.2144048966120025   T   T   T
  0.9891208120652664  0.7946816221712041  0.2151261441320642   T   T   T
  0.9907672929489522  0.2195176606069751  0.7948108609508182   T   T   T
  0.9949359606498334  0.7854600415615849  0.8003057656966561   T   T   T
  0.4996228742974296  0.2948498757944833  0.2916436528968873   T   T   T
  0.4891351174402416  0.7207070211035074  0.2986417621149116   T   T   T
  0.4904266831606279  0.2930864408157134  0.7168722193703587   T   T   T
  0.4985157119601595  0.7175040372741464  0.7148699123182212   T   T   T
 
  0.00000000E+00  0.00000000E+00  0.00000000E+00
  0.00000000E+00  0.00000000E+00  0.00000000E+00
  0.00000000E+00  0.00000000E+00  0.00000000E+00
  0.00000000E+00  0.00000000E+00  0.00000000E+00
  0.00000000E+00  0.00000000E+00  0.00000000E+00
  0.00000000E+00  0.00000000E+00  0.00000000E+00
  0.00000000E+00  0.00000000E+00  0.00000000E+00
  0.00000000E+00  0.00000000E+00  0.00000000E+00
  0.00000000E+00  0.00000000E+00  0.00000000E+00
  0.00000000E+00  0.00000000E+00  0.00000000E+00
  0.00000000E+00  0.00000000E+00  0.00000000E+00
  0.00000000E+00  0.00000000E+00  0.00000000E+00
  0.00000000E+00  0.00000000E+00  0.00000000E+00
  0.00000000E+00  0.00000000E+00  0.00000000E+00
  0.00000000E+00  0.00000000E+00  0.00000000E+00
  0.00000000E+00  0.00000000E+00  0.00000000E+00
  0.00000000E+00  0.00000000E+00  0.00000000E+00
  0.00000000E+00  0.00000000E+00  0.00000000E+00
  0.00000000E+00  0.00000000E+00  0.00000000E+00
  0.00000000E+00  0.00000000E+00  0.00000000E+00
  0.00000000E+00  0.00000000E+00  0.00000000E+00
  0.00000000E+00  0.00000000E+00  0.00000000E+00
  0.00000000E+00  0.00000000E+00  0.00000000E+00
  0.00000000E+00  0.00000000E+00  0.00000000E+00
  0.00000000E+00  0.00000000E+00  0.00000000E+00
  0.00000000E+00  0.00000000E+00  0.00000000E+00
  0.00000000E+00  0.00000000E+00  0.00000000E+00
  0.00000000E+00  0.00000000E+00  0.00000000E+00
  0.00000000E+00  0.00000000E+00  0.00000000E+00
  0.00000000E+00  0.00000000E+00  0.00000000E+00
  0.00000000E+00  0.00000000E+00  0.00000000E+00
  0.00000000E+00  0.00000000E+00  0.00000000E+00
  0.00000000E+00  0.00000000E+00  0.00000000E+00
  0.00000000E+00  0.00000000E+00  0.00000000E+00
  0.00000000E+00  0.00000000E+00  0.00000000E+00
  0.00000000E+00  0.00000000E+00  0.00000000E+00
  0.00000000E+00  0.00000000E+00  0.00000000E+00
  0.00000000E+00  0.00000000E+00  0.00000000E+00
  0.00000000E+00  0.00000000E+00  0.00000000E+00
  0.00000000E+00  0.00000000E+00  0.00000000E+00
