MAPbI3-cubic                            
   1.00000000000000     
    12.6117589277138258    0.0000000000000000    0.0000000000000000
     0.0000000000000000   12.6125926751480240    0.0000000000000000
     0.0000000000000000    0.0000000000000000   12.6133940108764087
   Cs   Pb   Sn   I 
     8     2     6    24
Selective dynamics
Direct
  0.0776489612344093  0.0050288777167538  0.0033183220223236   T   T   T
  0.9863152722723498  0.0056477592621746  0.4657751850981242   T   T   T
  0.9947226392857260  0.4807469765415817  0.0023204973769637   T   T   T
  0.0046708770368085  0.5076568701408206  0.5098140163304024   T   T   T
  0.5043499802556752  0.0095992209540938  0.0080813952339014   T   T   T
  0.4861617377399980  0.9740712889512011  0.5049421776879726   T   T   T
  0.4943938277137079  0.5031216036469104  0.9703475796390180   T   T   T
  0.5780599121274150  0.5039806810804777  0.5041978422889812   T   T   T
  0.2529439074786310  0.2583654075410351  0.2566364540519999   T   T   T
  0.7531720076326138  0.7579417836083024  0.7572635546162587   T   T   T
  0.2562493277840048  0.2532336127938848  0.7470828329500208   T   T   T
  0.2568597170867477  0.7481783588347994  0.2525590594247973   T   T   T
  0.2465981188224831  0.7500451001376405  0.7486061821277872   T   T   T
  0.7461548036849450  0.2497102096525552  0.2479542992978807   T   T   T
  0.7572557874758346  0.2480757072202238  0.7520872068725168   T   T   T
  0.7560461694661598  0.7528800113738470  0.2472945812684486   T   T   T
  0.2855703330998409  0.2598740295474045  0.0027202737750258   T   T   T
  0.2925803891763934  0.7538903608301766  0.0107882956298084   T   T   T
  0.1971922679271430  0.2441492946249824  0.5072476711055884   T   T   T
  0.2026417706861565  0.7685021188416741  0.5104490343865749   T   T   T
  0.7049911445461063  0.2611354820710901  0.0085410103261836   T   T   T
  0.6947192865500753  0.7506687085253603  0.0083425268437836   T   T   T
  0.7925347054619394  0.2603584586109662  0.5092283841551577   T   T   T
  0.7889850611449134  0.7539440996239293  0.5040658582392652   T   T   T
  0.2858693875239027  0.0041697338682738  0.2538815096498723   T   T   T
  0.1959998970033112  0.5086559533803481  0.2512981264397283   T   T   T
  0.2906951135734914  0.0082769351804970  0.7606983637108371   T   T   T
  0.2082863432412054  0.5078961096415355  0.7603469101245608   T   T   T
  0.7054281735708656  0.0100590855176321  0.2673429101596909   T   T   T
  0.7911261602107942  0.5103092790866768  0.2543233496100612   T   T   T
  0.6986656465975116  0.0076852744608615  0.7446859951715084   T   T   T
  0.7822816593007786  0.5031137427557724  0.7600387882555211   T   T   T
  0.9935242270994777  0.2177355608790137  0.2142955329209499   T   T   T
  0.9906152870187057  0.7951091399656107  0.2160538481530025   T   T   T
  0.9917497474151702  0.2206329112400454  0.7953671915177765   T   T   T
  0.9996561417770451  0.7853118609836471  0.8016301075685419   T   T   T
  0.4995145950184252  0.2955684710853745  0.2913987428928735   T   T   T
  0.4907617571311818  0.7197909887660074  0.2977072080446916   T   T   T
  0.4913696759781558  0.2924927008498557  0.7165467464154318   T   T   T
  0.4936381818498390  0.7173862302069764  0.7147204286161681   T   T   T
 
  0.00000000E+00  0.00000000E+00  0.00000000E+00
  0.00000000E+00  0.00000000E+00  0.00000000E+00
  0.00000000E+00  0.00000000E+00  0.00000000E+00
  0.00000000E+00  0.00000000E+00  0.00000000E+00
  0.00000000E+00  0.00000000E+00  0.00000000E+00
  0.00000000E+00  0.00000000E+00  0.00000000E+00
  0.00000000E+00  0.00000000E+00  0.00000000E+00
  0.00000000E+00  0.00000000E+00  0.00000000E+00
  0.00000000E+00  0.00000000E+00  0.00000000E+00
  0.00000000E+00  0.00000000E+00  0.00000000E+00
  0.00000000E+00  0.00000000E+00  0.00000000E+00
  0.00000000E+00  0.00000000E+00  0.00000000E+00
  0.00000000E+00  0.00000000E+00  0.00000000E+00
  0.00000000E+00  0.00000000E+00  0.00000000E+00
  0.00000000E+00  0.00000000E+00  0.00000000E+00
  0.00000000E+00  0.00000000E+00  0.00000000E+00
  0.00000000E+00  0.00000000E+00  0.00000000E+00
  0.00000000E+00  0.00000000E+00  0.00000000E+00
  0.00000000E+00  0.00000000E+00  0.00000000E+00
  0.00000000E+00  0.00000000E+00  0.00000000E+00
  0.00000000E+00  0.00000000E+00  0.00000000E+00
  0.00000000E+00  0.00000000E+00  0.00000000E+00
  0.00000000E+00  0.00000000E+00  0.00000000E+00
  0.00000000E+00  0.00000000E+00  0.00000000E+00
  0.00000000E+00  0.00000000E+00  0.00000000E+00
  0.00000000E+00  0.00000000E+00  0.00000000E+00
  0.00000000E+00  0.00000000E+00  0.00000000E+00
  0.00000000E+00  0.00000000E+00  0.00000000E+00
  0.00000000E+00  0.00000000E+00  0.00000000E+00
  0.00000000E+00  0.00000000E+00  0.00000000E+00
  0.00000000E+00  0.00000000E+00  0.00000000E+00
  0.00000000E+00  0.00000000E+00  0.00000000E+00
  0.00000000E+00  0.00000000E+00  0.00000000E+00
  0.00000000E+00  0.00000000E+00  0.00000000E+00
  0.00000000E+00  0.00000000E+00  0.00000000E+00
  0.00000000E+00  0.00000000E+00  0.00000000E+00
  0.00000000E+00  0.00000000E+00  0.00000000E+00
  0.00000000E+00  0.00000000E+00  0.00000000E+00
  0.00000000E+00  0.00000000E+00  0.00000000E+00
  0.00000000E+00  0.00000000E+00  0.00000000E+00
