MAPbI3-cubic                            
   1.00000000000000     
    12.6204213591868637    0.0000000000000000    0.0000000000000000
     0.0000000000000000   12.6230302112910344    0.0000000000000000
     0.0000000000000000    0.0000000000000000   12.6282676539969803
   Cs   Pb   Sn   I 
     8     2     6    24
Selective dynamics
Direct
  0.0766373536842693  0.0025553658612623  0.0032929524742045   T   T   T
  0.9840065952529642  0.0041394090408247  0.4663091393996339   T   T   T
  0.9919590268040608  0.4805952144467298  0.0037278583055311   T   T   T
  0.0036268604980805  0.5111153413840626  0.5091907045035242   T   T   T
  0.5053898863787012  0.0066908370823739  0.0081565707463938   T   T   T
  0.4897359801019050  0.9751567831328813  0.5050548543369544   T   T   T
  0.4965908217935535  0.5039561751776986  0.9703980290748788   T   T   T
  0.5767708452344635  0.5054141294804353  0.5041204350373150   T   T   T
  0.2518466750112012  0.2582031390317923  0.2572049599822108   T   T   T
  0.2517189699728561  0.2552626288606490  0.7479619059258127   T   T   T
  0.2570610107330253  0.7483513606879910  0.2521242945791542   T   T   T
  0.2524651193218901  0.7515944463871591  0.7465437002953834   T   T   T
  0.7455910020025129  0.2497538766507290  0.2472028190943689   T   T   T
  0.7535872140060462  0.2465206931778781  0.7501287837235964   T   T   T
  0.7552779873525139  0.7527776576495100  0.2447297491705243   T   T   T
  0.7599368047258324  0.7558855082886708  0.7553732596498222   T   T   T
  0.2906441107919449  0.2577630163216611  0.0037850770240979   T   T   T
  0.2906532096341792  0.7524245759558710  0.0101447994975032   T   T   T
  0.1882640888960196  0.2440970185516207  0.5036627675535996   T   T   T
  0.2047642546865944  0.7688001955175210  0.5093243027937646   T   T   T
  0.7039311362217688  0.2617490312350483  0.0093505522070956   T   T   T
  0.7019298499457705  0.7506223667711396  0.0085339760342009   T   T   T
  0.7933875401692347  0.2613454397320893  0.5101372459592213   T   T   T
  0.7842593768518356  0.7554798052549856  0.5098647364106910   T   T   T
  0.2861140696683009  0.0034610117560590  0.2534845875058167   T   T   T
  0.1960851552913496  0.5082680315875336  0.2510906077706778   T   T   T
  0.2936684234169036  0.0022563018017081  0.7616162124569001   T   T   T
  0.2035854923843630  0.5071693905479648  0.7615256028309290   T   T   T
  0.7062133249665905  0.0100133662959365  0.2668552882647788   T   T   T
  0.7900660954293244  0.5105994319416425  0.2559579286285327   T   T   T
  0.7048521006405508  0.0085244013799297  0.7454214180243497   T   T   T
  0.7809333273795289  0.5096368069812982  0.7601475490853602   T   T   T
  0.9925873681455144  0.2173924223157258  0.2115521461323908   T   T   T
  0.9907134331736529  0.7941869700336923  0.2182754129456086   T   T   T
  0.9936412997575417  0.2211506039886899  0.7998809858032345   T   T   T
  0.9925469347829221  0.7867028875055695  0.7954502331896052   T   T   T
  0.4984581620086743  0.2934308973363926  0.2949605819191561   T   T   T
  0.4914186344402296  0.7199995047303673  0.2955194518700921   T   T   T
  0.4986432452973801  0.2941962164055454  0.7153895422950711   T   T   T
  0.4904372131458956  0.7177577397113382  0.7165489774980216   T   T   T
 
  0.00000000E+00  0.00000000E+00  0.00000000E+00
  0.00000000E+00  0.00000000E+00  0.00000000E+00
  0.00000000E+00  0.00000000E+00  0.00000000E+00
  0.00000000E+00  0.00000000E+00  0.00000000E+00
  0.00000000E+00  0.00000000E+00  0.00000000E+00
  0.00000000E+00  0.00000000E+00  0.00000000E+00
  0.00000000E+00  0.00000000E+00  0.00000000E+00
  0.00000000E+00  0.00000000E+00  0.00000000E+00
  0.00000000E+00  0.00000000E+00  0.00000000E+00
  0.00000000E+00  0.00000000E+00  0.00000000E+00
  0.00000000E+00  0.00000000E+00  0.00000000E+00
  0.00000000E+00  0.00000000E+00  0.00000000E+00
  0.00000000E+00  0.00000000E+00  0.00000000E+00
  0.00000000E+00  0.00000000E+00  0.00000000E+00
  0.00000000E+00  0.00000000E+00  0.00000000E+00
  0.00000000E+00  0.00000000E+00  0.00000000E+00
  0.00000000E+00  0.00000000E+00  0.00000000E+00
  0.00000000E+00  0.00000000E+00  0.00000000E+00
  0.00000000E+00  0.00000000E+00  0.00000000E+00
  0.00000000E+00  0.00000000E+00  0.00000000E+00
  0.00000000E+00  0.00000000E+00  0.00000000E+00
  0.00000000E+00  0.00000000E+00  0.00000000E+00
  0.00000000E+00  0.00000000E+00  0.00000000E+00
  0.00000000E+00  0.00000000E+00  0.00000000E+00
  0.00000000E+00  0.00000000E+00  0.00000000E+00
  0.00000000E+00  0.00000000E+00  0.00000000E+00
  0.00000000E+00  0.00000000E+00  0.00000000E+00
  0.00000000E+00  0.00000000E+00  0.00000000E+00
  0.00000000E+00  0.00000000E+00  0.00000000E+00
  0.00000000E+00  0.00000000E+00  0.00000000E+00
  0.00000000E+00  0.00000000E+00  0.00000000E+00
  0.00000000E+00  0.00000000E+00  0.00000000E+00
  0.00000000E+00  0.00000000E+00  0.00000000E+00
  0.00000000E+00  0.00000000E+00  0.00000000E+00
  0.00000000E+00  0.00000000E+00  0.00000000E+00
  0.00000000E+00  0.00000000E+00  0.00000000E+00
  0.00000000E+00  0.00000000E+00  0.00000000E+00
  0.00000000E+00  0.00000000E+00  0.00000000E+00
  0.00000000E+00  0.00000000E+00  0.00000000E+00
  0.00000000E+00  0.00000000E+00  0.00000000E+00
