MAPbI3-cubic                            
   1.00000000000000     
    12.6938632505771842    0.0000000000000000    0.0000000000000000
     0.0000000000000000   12.6963707593668911    0.0000000000000000
     0.0000000000000000    0.0000000000000000   12.6966896281480430
   Cs   Pb   Sn   I 
     8     5     3    24
Selective dynamics
Direct
  0.0805347781249992  0.0036803392693585  0.0021082273295221   T   T   T
  0.9811205704934807  0.0064898548206216  0.4633300907590510   T   T   T
  0.9892347223371658  0.4775206513177110  0.0033909285913722   T   T   T
  0.0042272290365162  0.5082737102880586  0.5095462451660993   T   T   T
  0.5078669955669071  0.0077004844581268  0.0068783579126759   T   T   T
  0.4895861328656679  0.9698374340384390  0.5057272634105914   T   T   T
  0.4971582596818607  0.5036822026340104  0.9661571716560715   T   T   T
  0.5805851374796447  0.5047572060890175  0.5050600911419636   T   T   T
  0.2506992260128555  0.2589256979348136  0.2572510414742339   T   T   T
  0.2532941002218436  0.2559015868483385  0.7477974814690569   T   T   T
  0.2531813277508235  0.7493404576129734  0.2563896124046678   T   T   T
  0.2519383701153828  0.7514612088754475  0.7508763498128062   T   T   T
  0.7461146100775125  0.2527024804665032  0.2512044377845797   T   T   T
  0.7532863754967067  0.2439061128696878  0.7544053999219074   T   T   T
  0.7520283801126837  0.7548820378447232  0.2443175936860342   T   T   T
  0.7607434326437712  0.7533190307434339  0.7541271691854732   T   T   T
  0.2897976476660915  0.2585567897326442  0.0036194869464339   T   T   T
  0.2962078548860632  0.7542397045207707  0.0048418499529745   T   T   T
  0.1893553412915665  0.2428280827952065  0.5036815142529392   T   T   T
  0.1951780233867169  0.7725607434749264  0.5046684119110338   T   T   T
  0.7023633033206238  0.2633265979328456  0.0025100052869647   T   T   T
  0.7005221446361247  0.7505343578708263  0.0117711109255936   T   T   T
  0.7943477958334739  0.2622958191860647  0.5077387189361744   T   T   T
  0.7881067901548917  0.7543984283915108  0.5134972089439955   T   T   T
  0.2909155657689482  0.0052676625768129  0.2509222769368620   T   T   T
  0.1883773990529178  0.5053363165686946  0.2507592343634641   T   T   T
  0.2963275323867052  0.0042810689279733  0.7619887847048403   T   T   T
  0.1986422723270991  0.5040287016322864  0.7627426668930113   T   T   T
  0.7029671358659897  0.0044570889234876  0.2698327992322902   T   T   T
  0.7934498573642301  0.5095864195108462  0.2569360186628700   T   T   T
  0.7053760609946238  0.0103317555955869  0.7456848106017873   T   T   T
  0.7809492533058346  0.5117694552973475  0.7603381286637116   T   T   T
  0.9963880004636181  0.2141318026063601  0.2103959085602511   T   T   T
  0.9896819425394341  0.7984308127533168  0.2155762919454816   T   T   T
  0.9906302928169097  0.2202107843156114  0.7993529785193942   T   T   T
  0.9937427498547606  0.7860760648252167  0.8005066753421843   T   T   T
  0.4971784689797047  0.2991713862293750  0.2937186988882416   T   T   T
  0.4953737511424166  0.7183699887247670  0.3009187798595647   T   T   T
  0.4959085805462422  0.2957003294090299  0.7147110554693867   T   T   T
  0.4966125873971450  0.7167293420871985  0.7147191224944365   T   T   T
 
  0.00000000E+00  0.00000000E+00  0.00000000E+00
  0.00000000E+00  0.00000000E+00  0.00000000E+00
  0.00000000E+00  0.00000000E+00  0.00000000E+00
  0.00000000E+00  0.00000000E+00  0.00000000E+00
  0.00000000E+00  0.00000000E+00  0.00000000E+00
  0.00000000E+00  0.00000000E+00  0.00000000E+00
  0.00000000E+00  0.00000000E+00  0.00000000E+00
  0.00000000E+00  0.00000000E+00  0.00000000E+00
  0.00000000E+00  0.00000000E+00  0.00000000E+00
  0.00000000E+00  0.00000000E+00  0.00000000E+00
  0.00000000E+00  0.00000000E+00  0.00000000E+00
  0.00000000E+00  0.00000000E+00  0.00000000E+00
  0.00000000E+00  0.00000000E+00  0.00000000E+00
  0.00000000E+00  0.00000000E+00  0.00000000E+00
  0.00000000E+00  0.00000000E+00  0.00000000E+00
  0.00000000E+00  0.00000000E+00  0.00000000E+00
  0.00000000E+00  0.00000000E+00  0.00000000E+00
  0.00000000E+00  0.00000000E+00  0.00000000E+00
  0.00000000E+00  0.00000000E+00  0.00000000E+00
  0.00000000E+00  0.00000000E+00  0.00000000E+00
  0.00000000E+00  0.00000000E+00  0.00000000E+00
  0.00000000E+00  0.00000000E+00  0.00000000E+00
  0.00000000E+00  0.00000000E+00  0.00000000E+00
  0.00000000E+00  0.00000000E+00  0.00000000E+00
  0.00000000E+00  0.00000000E+00  0.00000000E+00
  0.00000000E+00  0.00000000E+00  0.00000000E+00
  0.00000000E+00  0.00000000E+00  0.00000000E+00
  0.00000000E+00  0.00000000E+00  0.00000000E+00
  0.00000000E+00  0.00000000E+00  0.00000000E+00
  0.00000000E+00  0.00000000E+00  0.00000000E+00
  0.00000000E+00  0.00000000E+00  0.00000000E+00
  0.00000000E+00  0.00000000E+00  0.00000000E+00
  0.00000000E+00  0.00000000E+00  0.00000000E+00
  0.00000000E+00  0.00000000E+00  0.00000000E+00
  0.00000000E+00  0.00000000E+00  0.00000000E+00
  0.00000000E+00  0.00000000E+00  0.00000000E+00
  0.00000000E+00  0.00000000E+00  0.00000000E+00
  0.00000000E+00  0.00000000E+00  0.00000000E+00
  0.00000000E+00  0.00000000E+00  0.00000000E+00
  0.00000000E+00  0.00000000E+00  0.00000000E+00
