MASnI3-cubic                            
   1.00000000000000     
    12.5588821018135857    0.0000000000000000    0.0000000000000000
     0.0000000000000000   12.5583715224155501    0.0000000000000000
     0.0000000000000000    0.0000000000000000   12.5579443935593602
   Cs   Sn   I 
     8     8    24
Selective dynamics
Direct
  0.0728075835303918  0.0045476851707198  0.0032934450605767   T   T   T
  0.9883493861004099  0.0056643698202717  0.4714659472187422   T   T   T
  0.9955898651371949  0.4840297641146483  0.0033943639532356   T   T   T
  0.0040254019385358  0.5073033556695934  0.5085743459872953   T   T   T
  0.5035976809280712  0.0081589231020992  0.0077141164048483   T   T   T
  0.4883289814114262  0.9810958212781904  0.5051156032026962   T   T   T
  0.4949740906811750  0.5037981253280714  0.9734426872146345   T   T   T
  0.5731720220661198  0.5040190788541289  0.5038638183791336   T   T   T
  0.2574449599183007  0.2575125129564886  0.2551115965127004   T   T   T
  0.2545432076283522  0.2542334901879154  0.7460031646426168   T   T   T
  0.2553270055574073  0.7478782307248220  0.2536303591291759   T   T   T
  0.2516301068857377  0.7499961586122424  0.7480525972078329   T   T   T
  0.7513562729650475  0.2500495385059229  0.2480379426100334   T   T   T
  0.7556297592583302  0.2471926603062249  0.7534665476566901   T   T   T
  0.7542558974715023  0.7542471795061798  0.2465030679754198   T   T   T
  0.7576075577661953  0.7564438174548155  0.7559864635769311   T   T   T
  0.2830866663659937  0.2595332383179901  0.0069649055114752   T   T   T
  0.2897897956805985  0.7539473054490045  0.0082764481493613   T   T   T
  0.2027428301540144  0.2455323721191491  0.5062868592670310   T   T   T
  0.2038319416155280  0.7674750542169738  0.5077347108879567   T   T   T
  0.7052261022250641  0.2608331451619821  0.0063494419444366   T   T   T
  0.7002655666579610  0.7511657403893492  0.0073780190829471   T   T   T
  0.7901884626521509  0.2597157970566451  0.5070348570699187   T   T   T
  0.7862799448941258  0.7539381907437563  0.5083105802267075   T   T   T
  0.2825276217689650  0.0076340627208224  0.2542108899787391   T   T   T
  0.2026355599937615  0.5070476955504104  0.2520450987928631   T   T   T
  0.2885481864765436  0.0064312412605545  0.7600959443845701   T   T   T
  0.2086496743179259  0.5060329492547583  0.7604470112667705   T   T   T
  0.7068293325832745  0.0074251368338480  0.2666380194230871   T   T   T
  0.7884762048518804  0.5076692322633024  0.2544677243184384   T   T   T
  0.7050363151103640  0.0059880109779503  0.7461884058659761   T   T   T
  0.7796796887974448  0.5064449616213704  0.7597481125761194   T   T   T
  0.9911283815708357  0.2191700729515048  0.2160946778812812   T   T   T
  0.9917245835988997  0.7926725594557641  0.2178765249971253   T   T   T
  0.9926429317557478  0.2223185407816824  0.7937952994609521   T   T   T
  0.9931110287546203  0.7845553297076443  0.7964413744517842   T   T   T
  0.4931637519416591  0.2911447368125525  0.2900988759626081   T   T   T
  0.4920083647100339  0.7223760628575625  0.2961568562065839   T   T   T
  0.4924060261891317  0.2903503213407124  0.7178444767720277   T   T   T
  0.4913812580892400  0.7194275305623677  0.7158588187887107   T   T   T
 
  0.00000000E+00  0.00000000E+00  0.00000000E+00
  0.00000000E+00  0.00000000E+00  0.00000000E+00
  0.00000000E+00  0.00000000E+00  0.00000000E+00
  0.00000000E+00  0.00000000E+00  0.00000000E+00
  0.00000000E+00  0.00000000E+00  0.00000000E+00
  0.00000000E+00  0.00000000E+00  0.00000000E+00
  0.00000000E+00  0.00000000E+00  0.00000000E+00
  0.00000000E+00  0.00000000E+00  0.00000000E+00
  0.00000000E+00  0.00000000E+00  0.00000000E+00
  0.00000000E+00  0.00000000E+00  0.00000000E+00
  0.00000000E+00  0.00000000E+00  0.00000000E+00
  0.00000000E+00  0.00000000E+00  0.00000000E+00
  0.00000000E+00  0.00000000E+00  0.00000000E+00
  0.00000000E+00  0.00000000E+00  0.00000000E+00
  0.00000000E+00  0.00000000E+00  0.00000000E+00
  0.00000000E+00  0.00000000E+00  0.00000000E+00
  0.00000000E+00  0.00000000E+00  0.00000000E+00
  0.00000000E+00  0.00000000E+00  0.00000000E+00
  0.00000000E+00  0.00000000E+00  0.00000000E+00
  0.00000000E+00  0.00000000E+00  0.00000000E+00
  0.00000000E+00  0.00000000E+00  0.00000000E+00
  0.00000000E+00  0.00000000E+00  0.00000000E+00
  0.00000000E+00  0.00000000E+00  0.00000000E+00
  0.00000000E+00  0.00000000E+00  0.00000000E+00
  0.00000000E+00  0.00000000E+00  0.00000000E+00
  0.00000000E+00  0.00000000E+00  0.00000000E+00
  0.00000000E+00  0.00000000E+00  0.00000000E+00
  0.00000000E+00  0.00000000E+00  0.00000000E+00
  0.00000000E+00  0.00000000E+00  0.00000000E+00
  0.00000000E+00  0.00000000E+00  0.00000000E+00
  0.00000000E+00  0.00000000E+00  0.00000000E+00
  0.00000000E+00  0.00000000E+00  0.00000000E+00
  0.00000000E+00  0.00000000E+00  0.00000000E+00
  0.00000000E+00  0.00000000E+00  0.00000000E+00
  0.00000000E+00  0.00000000E+00  0.00000000E+00
  0.00000000E+00  0.00000000E+00  0.00000000E+00
  0.00000000E+00  0.00000000E+00  0.00000000E+00
  0.00000000E+00  0.00000000E+00  0.00000000E+00
  0.00000000E+00  0.00000000E+00  0.00000000E+00
  0.00000000E+00  0.00000000E+00  0.00000000E+00
