MAPbI3-cubic                            
   1.00000000000000     
    12.7181932665892017    0.0000000000000000    0.0000000000000000
     0.0000000000000000   12.7194181764425274    0.0000000000000000
     0.0000000000000000    0.0000000000000000   12.7206183527088363
   Cs   Pb   Sn   I 
     8     6     2    24
Selective dynamics
Direct
  0.0820028785974287  0.0041698752564088  0.0026935905170973   T   T   T
  0.9841581965708954  0.0055437805531753  0.4618416124870421   T   T   T
  0.9936160187883658  0.4772016214875592  0.0022604398074009   T   T   T
  0.0053004880590493  0.5079828553574828  0.5098373000002212   T   T   T
  0.5051194030789006  0.0095876954677365  0.0084082079539272   T   T   T
  0.4839644955485909  0.9694016767847558  0.5047293958926602   T   T   T
  0.4929964739566515  0.5030890570118487  0.9669419009874787   T   T   T
  0.5824139184549750  0.5033295165165939  0.5034967339093939   T   T   T
  0.2561940495305350  0.2605456711091705  0.2587719995218905   T   T   T
  0.2507630670314569  0.2537796124949239  0.7488452091037487   T   T   T
  0.2504219337245814  0.7502334189886142  0.2542971667220968   T   T   T
  0.7514512226281553  0.2491913613461563  0.7529331069710921   T   T   T
  0.7496636022940848  0.7552172000189614  0.2498375791820564   T   T   T
  0.7562745672666509  0.7594504924685239  0.7597251909833389   T   T   T
  0.2512296886151759  0.7507534553210888  0.7505469199322476   T   T   T
  0.7511505749368297  0.2522480519899801  0.2488666912562323   T   T   T
  0.2885513142121638  0.2586976403441099  0.0044913931957424   T   T   T
  0.2939198078069722  0.7546146995772816  0.0049605302994351   T   T   T
  0.1916262957830668  0.2431413711473027  0.5041090503078891   T   T   T
  0.2015878385625385  0.7708177979248987  0.5096290860557033   T   T   T
  0.7026284329299344  0.2626672308867555  0.0085225010418952   T   T   T
  0.6894090782957036  0.7501347145971806  0.0053303118939425   T   T   T
  0.7948982050010542  0.2611879095533709  0.5041686367876537   T   T   T
  0.7919515446939300  0.7524296600138740  0.5056942355725766   T   T   T
  0.2891507030607272  0.0059309396747977  0.2521500128565393   T   T   T
  0.1902289472340755  0.5056691549701142  0.2508696570587006   T   T   T
  0.2936176643178285  0.0037501822178001  0.7613625421854593   T   T   T
  0.2055210449724072  0.5082769506639906  0.7617232826744029   T   T   T
  0.7035202475804923  0.0091613835001354  0.2698567294032941   T   T   T
  0.7931991529031919  0.5045371990442433  0.2549199284860038   T   T   T
  0.6926214299398481  0.0044580084896637  0.7437026317001312   T   T   T
  0.7856545754555384  0.5048657476066083  0.7587081903306654   T   T   T
  0.9894568320404247  0.2153632969950010  0.2119596366965055   T   T   T
  0.9977302311562042  0.7998371237103683  0.2160773803935214   T   T   T
  0.9986230294709344  0.2208438899253338  0.8012082580222639   T   T   T
  0.9967952521650858  0.7873916996505201  0.8019309538508494   T   T   T
  0.4965893965048949  0.2973292244094168  0.2924216606084684   T   T   T
  0.4977889642100521  0.7193770131700958  0.3024206143834505   T   T   T
  0.4985276583067701  0.2982637111096551  0.7166837920744342   T   T   T
  0.4896817743137447  0.7145281086445152  0.7130659388925622   T   T   T
 
  0.00000000E+00  0.00000000E+00  0.00000000E+00
  0.00000000E+00  0.00000000E+00  0.00000000E+00
  0.00000000E+00  0.00000000E+00  0.00000000E+00
  0.00000000E+00  0.00000000E+00  0.00000000E+00
  0.00000000E+00  0.00000000E+00  0.00000000E+00
  0.00000000E+00  0.00000000E+00  0.00000000E+00
  0.00000000E+00  0.00000000E+00  0.00000000E+00
  0.00000000E+00  0.00000000E+00  0.00000000E+00
  0.00000000E+00  0.00000000E+00  0.00000000E+00
  0.00000000E+00  0.00000000E+00  0.00000000E+00
  0.00000000E+00  0.00000000E+00  0.00000000E+00
  0.00000000E+00  0.00000000E+00  0.00000000E+00
  0.00000000E+00  0.00000000E+00  0.00000000E+00
  0.00000000E+00  0.00000000E+00  0.00000000E+00
  0.00000000E+00  0.00000000E+00  0.00000000E+00
  0.00000000E+00  0.00000000E+00  0.00000000E+00
  0.00000000E+00  0.00000000E+00  0.00000000E+00
  0.00000000E+00  0.00000000E+00  0.00000000E+00
  0.00000000E+00  0.00000000E+00  0.00000000E+00
  0.00000000E+00  0.00000000E+00  0.00000000E+00
  0.00000000E+00  0.00000000E+00  0.00000000E+00
  0.00000000E+00  0.00000000E+00  0.00000000E+00
  0.00000000E+00  0.00000000E+00  0.00000000E+00
  0.00000000E+00  0.00000000E+00  0.00000000E+00
  0.00000000E+00  0.00000000E+00  0.00000000E+00
  0.00000000E+00  0.00000000E+00  0.00000000E+00
  0.00000000E+00  0.00000000E+00  0.00000000E+00
  0.00000000E+00  0.00000000E+00  0.00000000E+00
  0.00000000E+00  0.00000000E+00  0.00000000E+00
  0.00000000E+00  0.00000000E+00  0.00000000E+00
  0.00000000E+00  0.00000000E+00  0.00000000E+00
  0.00000000E+00  0.00000000E+00  0.00000000E+00
  0.00000000E+00  0.00000000E+00  0.00000000E+00
  0.00000000E+00  0.00000000E+00  0.00000000E+00
  0.00000000E+00  0.00000000E+00  0.00000000E+00
  0.00000000E+00  0.00000000E+00  0.00000000E+00
  0.00000000E+00  0.00000000E+00  0.00000000E+00
  0.00000000E+00  0.00000000E+00  0.00000000E+00
  0.00000000E+00  0.00000000E+00  0.00000000E+00
  0.00000000E+00  0.00000000E+00  0.00000000E+00
