MAPbI3-cubic                            
   1.00000000000000     
    12.7809166179613278    0.0000000000000000    0.0000000000000000
     0.0000000000000000   12.7769185723448349    0.0000000000000000
     0.0000000000000000    0.0000000000000000   12.7732148373530610
   Cs   Pb   I 
     8     8    24
Selective dynamics
Direct
  0.0828610004264405  0.0051227946818599  0.0029806065160116   T   T   T
  0.9838215360352294  0.0060558286713075  0.4599233209448030   T   T   T
  0.9944411670235382  0.4785523075610598  0.0017060867483139   T   T   T
  0.0060181477321066  0.5069200511794421  0.5082072700372322   T   T   T
  0.5057947490745960  0.0083994107035537  0.0070741166637305   T   T   T
  0.4835105208045221  0.9667752491813033  0.5053260852549997   T   T   T
  0.4938719884578262  0.5028063417059982  0.9682341960878631   T   T   T
  0.5833933604479498  0.5036182399965199  0.5045502101799428   T   T   T
  0.2526103238153468  0.2593342395020244  0.2576195849896550   T   T   T
  0.2502383686094376  0.2553175511824151  0.7489793845361632   T   T   T
  0.2499679647240711  0.7505067131030287  0.2556625672915942   T   T   T
  0.2476356670623971  0.7527342409376416  0.7529534281253802   T   T   T
  0.7479538349554957  0.2539160927224628  0.2517398937748254   T   T   T
  0.7506833244124849  0.2495002651900933  0.7551374201707333   T   T   T
  0.7494515348635744  0.7560731901008566  0.2501522433417804   T   T   T
  0.7524003497001033  0.7584624789771297  0.7585981279635234   T   T   T
  0.2886265687703045  0.2585192319554466  0.0044322788533719   T   T   T
  0.2965359138736545  0.7544746131843212  0.0057504575883414   T   T   T
  0.1931072389709314  0.2423155657537279  0.5041794034204443   T   T   T
  0.1979996840814167  0.7726934238277821  0.5056155061598275   T   T   T
  0.6986990734897063  0.2622625143920345  0.0043912487685773   T   T   T
  0.6906875200700142  0.7499642265662203  0.0056226680396421   T   T   T
  0.7967162501919560  0.2623276327502992  0.5046352957969660   T   T   T
  0.7926993762523296  0.7513955782237005  0.5058775248898328   T   T   T
  0.2903132527661612  0.0059868518842165  0.2509890281648808   T   T   T
  0.1916012037065897  0.5058934493442493  0.2501911072298171   T   T   T
  0.2957893282604616  0.0047823695277884  0.7624657335909930   T   T   T
  0.2014765264925416  0.5046675249863029  0.7614171548483455   T   T   T
  0.6999373533639286  0.0057970201478312  0.2719561340977918   T   T   T
  0.7959938878656132  0.5060273520942360  0.2547420674820131   T   T   T
  0.6941993225444492  0.0044891836969470  0.7427300800022465   T   T   T
  0.7862648088536872  0.5047806514879909  0.7583359744124678   T   T   T
  0.9964387785888604  0.2147672426211997  0.2117026324460767   T   T   T
  0.9965019052378281  0.8002038747355940  0.2152794376346634   T   T   T
  0.9970802499574205  0.2206379027366410  0.8016949973742911   T   T   T
  0.9973052035900096  0.7874168201409759  0.8049387721849683   T   T   T
  0.4972223567809664  0.3000917569405530  0.2922526113762061   T   T   T
  0.4965709579974416  0.7184850906542479  0.3023284328980509   T   T   T
  0.4970396376145203  0.2993221019041954  0.7168421503500895   T   T   T
  0.4965397625340486  0.7136030250468011  0.7127847597635508   T   T   T
 
  0.00000000E+00  0.00000000E+00  0.00000000E+00
  0.00000000E+00  0.00000000E+00  0.00000000E+00
  0.00000000E+00  0.00000000E+00  0.00000000E+00
  0.00000000E+00  0.00000000E+00  0.00000000E+00
  0.00000000E+00  0.00000000E+00  0.00000000E+00
  0.00000000E+00  0.00000000E+00  0.00000000E+00
  0.00000000E+00  0.00000000E+00  0.00000000E+00
  0.00000000E+00  0.00000000E+00  0.00000000E+00
  0.00000000E+00  0.00000000E+00  0.00000000E+00
  0.00000000E+00  0.00000000E+00  0.00000000E+00
  0.00000000E+00  0.00000000E+00  0.00000000E+00
  0.00000000E+00  0.00000000E+00  0.00000000E+00
  0.00000000E+00  0.00000000E+00  0.00000000E+00
  0.00000000E+00  0.00000000E+00  0.00000000E+00
  0.00000000E+00  0.00000000E+00  0.00000000E+00
  0.00000000E+00  0.00000000E+00  0.00000000E+00
  0.00000000E+00  0.00000000E+00  0.00000000E+00
  0.00000000E+00  0.00000000E+00  0.00000000E+00
  0.00000000E+00  0.00000000E+00  0.00000000E+00
  0.00000000E+00  0.00000000E+00  0.00000000E+00
  0.00000000E+00  0.00000000E+00  0.00000000E+00
  0.00000000E+00  0.00000000E+00  0.00000000E+00
  0.00000000E+00  0.00000000E+00  0.00000000E+00
  0.00000000E+00  0.00000000E+00  0.00000000E+00
  0.00000000E+00  0.00000000E+00  0.00000000E+00
  0.00000000E+00  0.00000000E+00  0.00000000E+00
  0.00000000E+00  0.00000000E+00  0.00000000E+00
  0.00000000E+00  0.00000000E+00  0.00000000E+00
  0.00000000E+00  0.00000000E+00  0.00000000E+00
  0.00000000E+00  0.00000000E+00  0.00000000E+00
  0.00000000E+00  0.00000000E+00  0.00000000E+00
  0.00000000E+00  0.00000000E+00  0.00000000E+00
  0.00000000E+00  0.00000000E+00  0.00000000E+00
  0.00000000E+00  0.00000000E+00  0.00000000E+00
  0.00000000E+00  0.00000000E+00  0.00000000E+00
  0.00000000E+00  0.00000000E+00  0.00000000E+00
  0.00000000E+00  0.00000000E+00  0.00000000E+00
  0.00000000E+00  0.00000000E+00  0.00000000E+00
  0.00000000E+00  0.00000000E+00  0.00000000E+00
  0.00000000E+00  0.00000000E+00  0.00000000E+00
