MAPbI3-cubic                            
   1.00000000000000     
    12.6680613150076802    0.0000000000000000    0.0000000000000000
     0.0000000000000000   12.6713146463051238    0.0000000000000000
     0.0000000000000000    0.0000000000000000   12.6723368755865984
   Cs   Pb   Sn   I 
     8     4     4    24
Selective dynamics
Direct
  0.0791849498617054  0.0046524411321869  0.0030633896693288   T   T   T
  0.9832765439197715  0.0048970858750508  0.4642070763385036   T   T   T
  0.9916293100278182  0.4792788210587844  0.0021325052195209   T   T   T
  0.0040577037721974  0.5090126838906954  0.5107602835230409   T   T   T
  0.5055734099976377  0.0091064696415444  0.0072000809174426   T   T   T
  0.4880965848661631  0.9718181918496640  0.5046133880056516   T   T   T
  0.4959541456631484  0.5029560448753543  0.9678817402017685   T   T   T
  0.5790735655554684  0.5038993792186091  0.5040751514913993   T   T   T
  0.2521426429137108  0.2594224268725398  0.2578871374819087   T   T   T
  0.2529900090759156  0.2557852702187589  0.7480114906606872   T   T   T
  0.2531690424731892  0.7492580572820344  0.2564749992000230   T   T   T
  0.7563537619553813  0.7582296155823300  0.7578747423710368   T   T   T
  0.2512878002053114  0.7524825093336318  0.7524536146079797   T   T   T
  0.7458039162569747  0.2480427882122882  0.2462977476797263   T   T   T
  0.7553502804308749  0.2484195729578502  0.7498907363048346   T   T   T
  0.7540794566242255  0.7507607306774062  0.2477662536267360   T   T   T
  0.2880213436033472  0.2587623652514921  0.0036985287959439   T   T   T
  0.2947862960346583  0.7538595358275870  0.0040314011098346   T   T   T
  0.1900431230194641  0.2431948507516708  0.5038006101567092   T   T   T
  0.2008125409547930  0.7706204384442827  0.5088116855327485   T   T   T
  0.7049649099947572  0.2612828877900171  0.0099536300826628   T   T   T
  0.6960484474974180  0.7499238145729876  0.0091996487938886   T   T   T
  0.7926697238746243  0.2608840457206725  0.5109391771957874   T   T   T
  0.7886442305978889  0.7540418733346073  0.5051930266219316   T   T   T
  0.2887523091848934  0.0050907652896299  0.2515572078233816   T   T   T
  0.1890678632330420  0.5052629113434648  0.2511070811176310   T   T   T
  0.2939634389053793  0.0028432900654281  0.7610763442325990   T   T   T
  0.2046594094822183  0.5075450809135589  0.7617378518023870   T   T   T
  0.7055478223224085  0.0114607097264923  0.2668135629590296   T   T   T
  0.7908894003571376  0.5120103126179600  0.2550818391233420   T   T   T
  0.6999169012121911  0.0082289694280533  0.7443330192754374   T   T   T
  0.7823794181788202  0.5039317569693011  0.7600394347150186   T   T   T
  0.9906299034875872  0.2161190971481091  0.2127817732099260   T   T   T
  0.9923479252899341  0.7969216083594048  0.2158090250168669   T   T   T
  0.9932082389111940  0.2204713009940136  0.7979899449847423   T   T   T
  0.9993588287074360  0.7862750092371513  0.8011904768400626   T   T   T
  0.4967752062536306  0.2960790542773140  0.2923921694650744   T   T   T
  0.4973507089461151  0.7205892847325188  0.3002359912948194   T   T   T
  0.4978928033765158  0.2950867878770609  0.7170310478170663   T   T   T
  0.4932460829749914  0.7164921606484924  0.7146051847335428   T   T   T
 
  0.00000000E+00  0.00000000E+00  0.00000000E+00
  0.00000000E+00  0.00000000E+00  0.00000000E+00
  0.00000000E+00  0.00000000E+00  0.00000000E+00
  0.00000000E+00  0.00000000E+00  0.00000000E+00
  0.00000000E+00  0.00000000E+00  0.00000000E+00
  0.00000000E+00  0.00000000E+00  0.00000000E+00
  0.00000000E+00  0.00000000E+00  0.00000000E+00
  0.00000000E+00  0.00000000E+00  0.00000000E+00
  0.00000000E+00  0.00000000E+00  0.00000000E+00
  0.00000000E+00  0.00000000E+00  0.00000000E+00
  0.00000000E+00  0.00000000E+00  0.00000000E+00
  0.00000000E+00  0.00000000E+00  0.00000000E+00
  0.00000000E+00  0.00000000E+00  0.00000000E+00
  0.00000000E+00  0.00000000E+00  0.00000000E+00
  0.00000000E+00  0.00000000E+00  0.00000000E+00
  0.00000000E+00  0.00000000E+00  0.00000000E+00
  0.00000000E+00  0.00000000E+00  0.00000000E+00
  0.00000000E+00  0.00000000E+00  0.00000000E+00
  0.00000000E+00  0.00000000E+00  0.00000000E+00
  0.00000000E+00  0.00000000E+00  0.00000000E+00
  0.00000000E+00  0.00000000E+00  0.00000000E+00
  0.00000000E+00  0.00000000E+00  0.00000000E+00
  0.00000000E+00  0.00000000E+00  0.00000000E+00
  0.00000000E+00  0.00000000E+00  0.00000000E+00
  0.00000000E+00  0.00000000E+00  0.00000000E+00
  0.00000000E+00  0.00000000E+00  0.00000000E+00
  0.00000000E+00  0.00000000E+00  0.00000000E+00
  0.00000000E+00  0.00000000E+00  0.00000000E+00
  0.00000000E+00  0.00000000E+00  0.00000000E+00
  0.00000000E+00  0.00000000E+00  0.00000000E+00
  0.00000000E+00  0.00000000E+00  0.00000000E+00
  0.00000000E+00  0.00000000E+00  0.00000000E+00
  0.00000000E+00  0.00000000E+00  0.00000000E+00
  0.00000000E+00  0.00000000E+00  0.00000000E+00
  0.00000000E+00  0.00000000E+00  0.00000000E+00
  0.00000000E+00  0.00000000E+00  0.00000000E+00
  0.00000000E+00  0.00000000E+00  0.00000000E+00
  0.00000000E+00  0.00000000E+00  0.00000000E+00
  0.00000000E+00  0.00000000E+00  0.00000000E+00
  0.00000000E+00  0.00000000E+00  0.00000000E+00
