MAPbI3-cubic                            
   1.00000000000000     
    12.6394395565677726    0.0000000000000000    0.0000000000000000
     0.0000000000000000   12.6455454901910027    0.0000000000000000
     0.0000000000000000    0.0000000000000000   12.6495890018939541
   Cs   Pb   Sn   I 
     8     3     5    24
Selective dynamics
Direct
  0.0782750189595088  0.0034051626774876  0.0018973708440045   T   T   T
  0.9827941327017280  0.0048992298527414  0.4655695135579127   T   T   T
  0.9901295873224153  0.4789381784390623  0.0027832638336351   T   T   T
  0.0036076251716796  0.5101701969250854  0.5115171438621485   T   T   T
  0.5065236975040858  0.0073443416268129  0.0056101974093848   T   T   T
  0.4900862862394015  0.9737447691693399  0.5050668060315907   T   T   T
  0.4967150357020647  0.5035622741599520  0.9688859249416157   T   T   T
  0.5778706731650906  0.5045909208733812  0.5047339020828834   T   T   T
  0.2503875588146371  0.2587461455004342  0.2571019671533435   T   T   T
  0.2521112828854618  0.2548745048899489  0.7480715368924735   T   T   T
  0.2520394688173974  0.7496267328193336  0.2552552987063412   T   T   T
  0.2544976837944258  0.7508831355104945  0.7502468377304701   T   T   T
  0.7440875155063500  0.2488982658448071  0.2472171480070184   T   T   T
  0.7535185960037740  0.2458940903020500  0.7499079391859135   T   T   T
  0.7518629220928007  0.7508967890703148  0.2457411050044303   T   T   T
  0.7614995922827292  0.7552483486112744  0.7556072524951614   T   T   T
  0.2899449909993130  0.2581055838963034  0.0034002501051176   T   T   T
  0.2941451879090799  0.7533671112239486  0.0031591241221631   T   T   T
  0.1889671694844046  0.2435336000633191  0.5035347103350213   T   T   T
  0.2011356596669190  0.7700654816998757  0.5077972064308914   T   T   T
  0.7044034160349040  0.2621311105345895  0.0098929009469745   T   T   T
  0.7011896651597709  0.7495278926685034  0.0103925934298747   T   T   T
  0.7928979424215422  0.2615340625836782  0.5108684475034425   T   T   T
  0.7864871953166580  0.7552024313430893  0.5120290504890513   T   T   T
  0.2903520519891243  0.0048646846840366  0.2510902363023265   T   T   T
  0.1880480398449257  0.5050234023277570  0.2508719791718056   T   T   T
  0.2939797969545762  0.0025041740695668  0.7600645045575746   T   T   T
  0.2046800867615752  0.5071404913010928  0.7616739486536067   T   T   T
  0.7048494406958759  0.0111606579735672  0.2669843490762891   T   T   T
  0.7912588804108035  0.5117412300728363  0.2571315263878878   T   T   T
  0.7058122211711514  0.0090072528884315  0.7452019842169276   T   T   T
  0.7803368426164176  0.5102355540989812  0.7608248430731669   T   T   T
  0.9910672309159290  0.2149950438526477  0.2119935075370337   T   T   T
  0.9929805724306284  0.7977901793909278  0.2171590239883501   T   T   T
  0.9937313903935856  0.2218829811326385  0.7990613054739996   T   T   T
  0.9931185578178493  0.7852707113091471  0.7970619163515553   T   T   T
  0.4969187775483421  0.2961251426972481  0.2934878708524805   T   T   T
  0.4982051967584609  0.7203381343051641  0.2995023338983943   T   T   T
  0.4987204184674547  0.2938175117878495  0.7161592245073118   T   T   T
  0.4907625912671263  0.7179124878222501  0.7154439548504475   T   T   T
 
  0.00000000E+00  0.00000000E+00  0.00000000E+00
  0.00000000E+00  0.00000000E+00  0.00000000E+00
  0.00000000E+00  0.00000000E+00  0.00000000E+00
  0.00000000E+00  0.00000000E+00  0.00000000E+00
  0.00000000E+00  0.00000000E+00  0.00000000E+00
  0.00000000E+00  0.00000000E+00  0.00000000E+00
  0.00000000E+00  0.00000000E+00  0.00000000E+00
  0.00000000E+00  0.00000000E+00  0.00000000E+00
  0.00000000E+00  0.00000000E+00  0.00000000E+00
  0.00000000E+00  0.00000000E+00  0.00000000E+00
  0.00000000E+00  0.00000000E+00  0.00000000E+00
  0.00000000E+00  0.00000000E+00  0.00000000E+00
  0.00000000E+00  0.00000000E+00  0.00000000E+00
  0.00000000E+00  0.00000000E+00  0.00000000E+00
  0.00000000E+00  0.00000000E+00  0.00000000E+00
  0.00000000E+00  0.00000000E+00  0.00000000E+00
  0.00000000E+00  0.00000000E+00  0.00000000E+00
  0.00000000E+00  0.00000000E+00  0.00000000E+00
  0.00000000E+00  0.00000000E+00  0.00000000E+00
  0.00000000E+00  0.00000000E+00  0.00000000E+00
  0.00000000E+00  0.00000000E+00  0.00000000E+00
  0.00000000E+00  0.00000000E+00  0.00000000E+00
  0.00000000E+00  0.00000000E+00  0.00000000E+00
  0.00000000E+00  0.00000000E+00  0.00000000E+00
  0.00000000E+00  0.00000000E+00  0.00000000E+00
  0.00000000E+00  0.00000000E+00  0.00000000E+00
  0.00000000E+00  0.00000000E+00  0.00000000E+00
  0.00000000E+00  0.00000000E+00  0.00000000E+00
  0.00000000E+00  0.00000000E+00  0.00000000E+00
  0.00000000E+00  0.00000000E+00  0.00000000E+00
  0.00000000E+00  0.00000000E+00  0.00000000E+00
  0.00000000E+00  0.00000000E+00  0.00000000E+00
  0.00000000E+00  0.00000000E+00  0.00000000E+00
  0.00000000E+00  0.00000000E+00  0.00000000E+00
  0.00000000E+00  0.00000000E+00  0.00000000E+00
  0.00000000E+00  0.00000000E+00  0.00000000E+00
  0.00000000E+00  0.00000000E+00  0.00000000E+00
  0.00000000E+00  0.00000000E+00  0.00000000E+00
  0.00000000E+00  0.00000000E+00  0.00000000E+00
  0.00000000E+00  0.00000000E+00  0.00000000E+00
