MAPbI3-cubic                            
   1.00000000000000     
    12.6761108043421391    0.0000000000000000    0.0000000000000000
     0.0000000000000000   12.6759743761161463    0.0000000000000000
     0.0000000000000000    0.0000000000000000   12.6762175762429035
   Cs   Pb   Sn   I 
     8     4     4    24
Selective dynamics
Direct
  0.0805234254676535  0.0014826818481382  0.0028427032631129   T   T   T
  0.9847107189248518  0.0043102458486146  0.4659723064532244   T   T   T
  0.9899363039105609  0.4782032005320005  0.0035769804326335   T   T   T
  0.0038880756325241  0.5114961281733343  0.5113830657813025   T   T   T
  0.5060577354564444  0.0041312091958048  0.0086399608100010   T   T   T
  0.4891779850522084  0.9762049244138780  0.5038713263720354   T   T   T
  0.4959256149103837  0.5042802767643053  0.9667821488517347   T   T   T
  0.5798878014391704  0.5060820338379060  0.5029550363313291   T   T   T
  0.2525860872000010  0.2590210454816884  0.2587585212245926   T   T   T
  0.2503204118363627  0.2543683216017101  0.7497953392290171   T   T   T
  0.2536399432465046  0.7485616708916396  0.2550249330257799   T   T   T
  0.7512924211669798  0.2499930555478542  0.7538404319595315   T   T   T
  0.7538270388784909  0.7512315736562485  0.2448162534457694   T   T   T
  0.7599934065144680  0.7604606913767284  0.7544036692106530   T   T   T
  0.2543390375284602  0.7505068305984182  0.7492328806160984   T   T   T
  0.7475690539668491  0.2479832779457567  0.2505568592453074   T   T   T
  0.2928476779095774  0.2566648494463095  0.0048525310603580   T   T   T
  0.2931209275168101  0.7530441890491701  0.0031306127728925   T   T   T
  0.1876295711207447  0.2443628456577471  0.5048126779963340   T   T   T
  0.2024813206603895  0.7688286511173530  0.5075623594984506   T   T   T
  0.6992957760761200  0.2626800572571781  0.0084859851277344   T   T   T
  0.7035240411506365  0.7486715561624351  0.0096729544538832   T   T   T
  0.7960061714142199  0.2622561807238100  0.5039499617894094   T   T   T
  0.7851960305706811  0.7566380856335826  0.5111526164492446   T   T   T
  0.2873179279244340  0.0040801687154044  0.2527301058417919   T   T   T
  0.1887571547936204  0.5041934467002420  0.2506487482300130   T   T   T
  0.2946729259371921  0.0027295864012302  0.7597910767590932   T   T   T
  0.2035252496273259  0.5075437631240689  0.7632727508143233   T   T   T
  0.7060890326407403  0.0113537860260422  0.2676382198225724   T   T   T
  0.7912085152881758  0.5123894672999185  0.2559669697765514   T   T   T
  0.6982076390375553  0.0022267291250131  0.7465518181508983   T   T   T
  0.7830596879192910  0.5074051787359366  0.7595031836183850   T   T   T
  0.9893057048342584  0.2149043047511441  0.2103338312706811   T   T   T
  0.9933408321084940  0.7969131289476792  0.2180772905997514   T   T   T
  0.9982933108667140  0.2214194106018326  0.8042564303928401   T   T   T
  0.9912126578434837  0.7913611195883732  0.7914026470082050   T   T   T
  0.4955936327013362  0.2927192447467917  0.2978935309028614   T   T   T
  0.4984955735767826  0.7221267254388906  0.2976449301301614   T   T   T
  0.4983163553445920  0.2965328350198249  0.7131501502177500   T   T   T
  0.4888272220049004  0.7156375220159958  0.7150662010636921   T   T   T
 
  0.00000000E+00  0.00000000E+00  0.00000000E+00
  0.00000000E+00  0.00000000E+00  0.00000000E+00
  0.00000000E+00  0.00000000E+00  0.00000000E+00
  0.00000000E+00  0.00000000E+00  0.00000000E+00
  0.00000000E+00  0.00000000E+00  0.00000000E+00
  0.00000000E+00  0.00000000E+00  0.00000000E+00
  0.00000000E+00  0.00000000E+00  0.00000000E+00
  0.00000000E+00  0.00000000E+00  0.00000000E+00
  0.00000000E+00  0.00000000E+00  0.00000000E+00
  0.00000000E+00  0.00000000E+00  0.00000000E+00
  0.00000000E+00  0.00000000E+00  0.00000000E+00
  0.00000000E+00  0.00000000E+00  0.00000000E+00
  0.00000000E+00  0.00000000E+00  0.00000000E+00
  0.00000000E+00  0.00000000E+00  0.00000000E+00
  0.00000000E+00  0.00000000E+00  0.00000000E+00
  0.00000000E+00  0.00000000E+00  0.00000000E+00
  0.00000000E+00  0.00000000E+00  0.00000000E+00
  0.00000000E+00  0.00000000E+00  0.00000000E+00
  0.00000000E+00  0.00000000E+00  0.00000000E+00
  0.00000000E+00  0.00000000E+00  0.00000000E+00
  0.00000000E+00  0.00000000E+00  0.00000000E+00
  0.00000000E+00  0.00000000E+00  0.00000000E+00
  0.00000000E+00  0.00000000E+00  0.00000000E+00
  0.00000000E+00  0.00000000E+00  0.00000000E+00
  0.00000000E+00  0.00000000E+00  0.00000000E+00
  0.00000000E+00  0.00000000E+00  0.00000000E+00
  0.00000000E+00  0.00000000E+00  0.00000000E+00
  0.00000000E+00  0.00000000E+00  0.00000000E+00
  0.00000000E+00  0.00000000E+00  0.00000000E+00
  0.00000000E+00  0.00000000E+00  0.00000000E+00
  0.00000000E+00  0.00000000E+00  0.00000000E+00
  0.00000000E+00  0.00000000E+00  0.00000000E+00
  0.00000000E+00  0.00000000E+00  0.00000000E+00
  0.00000000E+00  0.00000000E+00  0.00000000E+00
  0.00000000E+00  0.00000000E+00  0.00000000E+00
  0.00000000E+00  0.00000000E+00  0.00000000E+00
  0.00000000E+00  0.00000000E+00  0.00000000E+00
  0.00000000E+00  0.00000000E+00  0.00000000E+00
  0.00000000E+00  0.00000000E+00  0.00000000E+00
  0.00000000E+00  0.00000000E+00  0.00000000E+00
