MAPbI3-cubic                            
   1.00000000000000     
    12.6633274325824008    0.0000000000000000    0.0000000000000000
     0.0000000000000000   12.6642039886762987    0.0000000000000000
     0.0000000000000000    0.0000000000000000   12.6652639298688676
   Cs   Pb   Sn   I 
     8     4     4    24
Selective dynamics
Direct
  0.0789838517473385  0.0049599732868089  0.0034386686942369   T   T   T
  0.9859895021976115  0.0057663310768632  0.4640985605241710   T   T   T
  0.9942503427926184  0.4785416772419424  0.0029528494182856   T   T   T
  0.0051092537361228  0.5074458561238160  0.5089216258410758   T   T   T
  0.5050284360908179  0.0090027182710699  0.0080949818177132   T   T   T
  0.4856039858480869  0.9715808300358333  0.5050151440162551   T   T   T
  0.4941270680859375  0.5036647548063300  0.9679902681102206   T   T   T
  0.5792997755435536  0.5035601349985512  0.5037198272572923   T   T   T
  0.2552042442463289  0.2592042207970096  0.2574260587666402   T   T   T
  0.2503722554420804  0.7522481225367557  0.7510564750789399   T   T   T
  0.7536488353019806  0.2488667035859251  0.7551943075203127   T   T   T
  0.7521817649339866  0.7566790885735770  0.2492470719954554   T   T   T
  0.7544853592103777  0.7586733574122917  0.7588102798399632   T   T   T
  0.7501658608619408  0.2536986677827642  0.2510196694438278   T   T   T
  0.2525753817160421  0.2555829445620148  0.7482712644680660   T   T   T
  0.2525754700191030  0.7495988707023713  0.2552293711500511   T   T   T
  0.2863479527728785  0.2593955405585078  0.0038254908700424   T   T   T
  0.2930096586327053  0.7545767542493351  0.0080800280665727   T   T   T
  0.1975868198876043  0.2440595093993920  0.5081338725981226   T   T   T
  0.2002633117932646  0.7705143214174726  0.5032872978415810   T   T   T
  0.7020574636482024  0.2626903581402829  0.0077925070968803   T   T   T
  0.6944574764542040  0.7507383031576751  0.0021837622087517   T   T   T
  0.7943979190846235  0.2609940212496156  0.5033797327450245   T   T   T
  0.7887892692852887  0.7526498823136762  0.5071243760694202   T   T   T
  0.2867707325799600  0.0053588950924919  0.2525601806509457   T   T   T
  0.1964786957086559  0.5096053586910116  0.2513844226213138   T   T   T
  0.2930158593411818  0.0070529536162951  0.7616708768561935   T   T   T
  0.2040288480635795  0.5020284644440665  0.7618148038229791   T   T   T
  0.7029716532211694  0.0085812104858931  0.2695304153525200   T   T   T
  0.7929816405444114  0.5039954460110962  0.2550682262851396   T   T   T
  0.6985536705718403  0.0009392011133826  0.7449440065290105   T   T   T
  0.7823211537939727  0.5058961091415171  0.7591662160629227   T   T   T
  0.9931280370769215  0.2174796315113738  0.2139935850714636   T   T   T
  0.9962641596490016  0.7974864904534300  0.2161085830611569   T   T   T
  0.9976672417892374  0.2205804905375075  0.7984832459363815   T   T   T
  0.9912680499791975  0.7866505367824317  0.8009313664356199   T   T   T
  0.4994091686407032  0.2958022532693860  0.2917009472427452   T   T   T
  0.4914136997145633  0.7193609271827910  0.2985539217087450   T   T   T
  0.4921815629126201  0.2941855150223986  0.7164893027188270   T   T   T
  0.4950345670802463  0.7153035743650662  0.7133064082051419   T   T   T
 
  0.00000000E+00  0.00000000E+00  0.00000000E+00
  0.00000000E+00  0.00000000E+00  0.00000000E+00
  0.00000000E+00  0.00000000E+00  0.00000000E+00
  0.00000000E+00  0.00000000E+00  0.00000000E+00
  0.00000000E+00  0.00000000E+00  0.00000000E+00
  0.00000000E+00  0.00000000E+00  0.00000000E+00
  0.00000000E+00  0.00000000E+00  0.00000000E+00
  0.00000000E+00  0.00000000E+00  0.00000000E+00
  0.00000000E+00  0.00000000E+00  0.00000000E+00
  0.00000000E+00  0.00000000E+00  0.00000000E+00
  0.00000000E+00  0.00000000E+00  0.00000000E+00
  0.00000000E+00  0.00000000E+00  0.00000000E+00
  0.00000000E+00  0.00000000E+00  0.00000000E+00
  0.00000000E+00  0.00000000E+00  0.00000000E+00
  0.00000000E+00  0.00000000E+00  0.00000000E+00
  0.00000000E+00  0.00000000E+00  0.00000000E+00
  0.00000000E+00  0.00000000E+00  0.00000000E+00
  0.00000000E+00  0.00000000E+00  0.00000000E+00
  0.00000000E+00  0.00000000E+00  0.00000000E+00
  0.00000000E+00  0.00000000E+00  0.00000000E+00
  0.00000000E+00  0.00000000E+00  0.00000000E+00
  0.00000000E+00  0.00000000E+00  0.00000000E+00
  0.00000000E+00  0.00000000E+00  0.00000000E+00
  0.00000000E+00  0.00000000E+00  0.00000000E+00
  0.00000000E+00  0.00000000E+00  0.00000000E+00
  0.00000000E+00  0.00000000E+00  0.00000000E+00
  0.00000000E+00  0.00000000E+00  0.00000000E+00
  0.00000000E+00  0.00000000E+00  0.00000000E+00
  0.00000000E+00  0.00000000E+00  0.00000000E+00
  0.00000000E+00  0.00000000E+00  0.00000000E+00
  0.00000000E+00  0.00000000E+00  0.00000000E+00
  0.00000000E+00  0.00000000E+00  0.00000000E+00
  0.00000000E+00  0.00000000E+00  0.00000000E+00
  0.00000000E+00  0.00000000E+00  0.00000000E+00
  0.00000000E+00  0.00000000E+00  0.00000000E+00
  0.00000000E+00  0.00000000E+00  0.00000000E+00
  0.00000000E+00  0.00000000E+00  0.00000000E+00
  0.00000000E+00  0.00000000E+00  0.00000000E+00
  0.00000000E+00  0.00000000E+00  0.00000000E+00
  0.00000000E+00  0.00000000E+00  0.00000000E+00
