MAPbI3-cubic                            
   1.00000000000000     
    12.6432276313736889    0.0000000000000000    0.0000000000000000
     0.0000000000000000   12.6441926012833097    0.0000000000000000
     0.0000000000000000    0.0000000000000000   12.6477555941466520
   Cs   Pb   Sn   I 
     8     3     5    24
Selective dynamics
Direct
  0.0779968538981567  0.0030038732166020  0.0027871048478889   T   T   T
  0.9845136019214286  0.0041246849864989  0.4654894965451369   T   T   T
  0.9930636227390969  0.4799452832479369  0.0034717983652936   T   T   T
  0.0041846491840179  0.5104601156447043  0.5092134135350460   T   T   T
  0.5052944247225166  0.0095658881057196  0.0068260975794034   T   T   T
  0.4887865969823922  0.9759203683294396  0.5052840638696637   T   T   T
  0.4950047477992245  0.5035209365909783  0.9670169515328363   T   T   T
  0.5781137081083175  0.5040371493731584  0.5046355151526769   T   T   T
  0.2531050841190409  0.2588731872326292  0.2569866627713848   T   T   T
  0.2516817239734688  0.2552920325632752  0.7473902919799555   T   T   T
  0.7522229986769852  0.7559983503835442  0.2489961969986378   T   T   T
  0.7583949194264911  0.7554079410602929  0.7597019294891356   T   T   T
  0.2550548478585267  0.7497351034008254  0.2505885849647445   T   T   T
  0.2518970732516686  0.7516755722716710  0.7455538859025146   T   T   T
  0.7476725595011975  0.2533067667118039  0.2467286226966664   T   T   T
  0.7541375967506220  0.2461450635471785  0.7502405833959759   T   T   T
  0.2893972479422590  0.2580334885613150  0.0035439240110318   T   T   T
  0.2916975272737878  0.7531714662854256  0.0109350216503879   T   T   T
  0.1891105658256269  0.2440821544435145  0.5032895128312573   T   T   T
  0.2035034368625294  0.7688669552362875  0.5101874297095683   T   T   T
  0.7044928048902852  0.2631057407345563  0.0101370180692117   T   T   T
  0.6947442355805792  0.7511922565323929  0.0021934489856643   T   T   T
  0.7936653275420852  0.2603901315085197  0.5113169009424403   T   T   T
  0.7868440006914447  0.7538109143470167  0.5072658870881880   T   T   T
  0.2878317614179316  0.0040609548975221  0.2530085885046039   T   T   T
  0.1964511749567774  0.5087700450457618  0.2505867894783954   T   T   T
  0.2924987054517720  0.0023233178465595  0.7613498265935232   T   T   T
  0.2044821454968072  0.5070790344035372  0.7616062754132169   T   T   T
  0.7032204211097122  0.0082838675252931  0.2682884828912676   T   T   T
  0.7933898435146414  0.5035750370292333  0.2571308147972136   T   T   T
  0.7054234839562376  0.0088932931304465  0.7450028401612709   T   T   T
  0.7798144272878491  0.5098743659704321  0.7605670009131762   T   T   T
  0.9923284845329757  0.2160069093392458  0.2119751867564088   T   T   T
  0.9979870088977606  0.7968835555550711  0.2185982589304262   T   T   T
  0.9933606819503923  0.2218051519666433  0.7998446203878886   T   T   T
  0.9903509051270030  0.7842506581509067  0.7993642815439238   T   T   T
  0.4984188124682213  0.2933206020736094  0.2948527484312020   T   T   T
  0.4934368804269738  0.7189872846657195  0.2983275738900139   T   T   T
  0.4982464147090220  0.2930575336504331  0.7160496639461080   T   T   T
  0.4881786931741631  0.7181629644342767  0.7136667044466724   T   T   T
 
  0.00000000E+00  0.00000000E+00  0.00000000E+00
  0.00000000E+00  0.00000000E+00  0.00000000E+00
  0.00000000E+00  0.00000000E+00  0.00000000E+00
  0.00000000E+00  0.00000000E+00  0.00000000E+00
  0.00000000E+00  0.00000000E+00  0.00000000E+00
  0.00000000E+00  0.00000000E+00  0.00000000E+00
  0.00000000E+00  0.00000000E+00  0.00000000E+00
  0.00000000E+00  0.00000000E+00  0.00000000E+00
  0.00000000E+00  0.00000000E+00  0.00000000E+00
  0.00000000E+00  0.00000000E+00  0.00000000E+00
  0.00000000E+00  0.00000000E+00  0.00000000E+00
  0.00000000E+00  0.00000000E+00  0.00000000E+00
  0.00000000E+00  0.00000000E+00  0.00000000E+00
  0.00000000E+00  0.00000000E+00  0.00000000E+00
  0.00000000E+00  0.00000000E+00  0.00000000E+00
  0.00000000E+00  0.00000000E+00  0.00000000E+00
  0.00000000E+00  0.00000000E+00  0.00000000E+00
  0.00000000E+00  0.00000000E+00  0.00000000E+00
  0.00000000E+00  0.00000000E+00  0.00000000E+00
  0.00000000E+00  0.00000000E+00  0.00000000E+00
  0.00000000E+00  0.00000000E+00  0.00000000E+00
  0.00000000E+00  0.00000000E+00  0.00000000E+00
  0.00000000E+00  0.00000000E+00  0.00000000E+00
  0.00000000E+00  0.00000000E+00  0.00000000E+00
  0.00000000E+00  0.00000000E+00  0.00000000E+00
  0.00000000E+00  0.00000000E+00  0.00000000E+00
  0.00000000E+00  0.00000000E+00  0.00000000E+00
  0.00000000E+00  0.00000000E+00  0.00000000E+00
  0.00000000E+00  0.00000000E+00  0.00000000E+00
  0.00000000E+00  0.00000000E+00  0.00000000E+00
  0.00000000E+00  0.00000000E+00  0.00000000E+00
  0.00000000E+00  0.00000000E+00  0.00000000E+00
  0.00000000E+00  0.00000000E+00  0.00000000E+00
  0.00000000E+00  0.00000000E+00  0.00000000E+00
  0.00000000E+00  0.00000000E+00  0.00000000E+00
  0.00000000E+00  0.00000000E+00  0.00000000E+00
  0.00000000E+00  0.00000000E+00  0.00000000E+00
  0.00000000E+00  0.00000000E+00  0.00000000E+00
  0.00000000E+00  0.00000000E+00  0.00000000E+00
  0.00000000E+00  0.00000000E+00  0.00000000E+00
