MAPbI3-cubic                            
   1.00000000000000     
    12.7254892455102393    0.0000000000000000    0.0000000000000000
     0.0000000000000000   12.7265538477108553    0.0000000000000000
     0.0000000000000000    0.0000000000000000   12.7273981535667620
   Cs   Pb   Sn   I 
     8     6     2    24
Selective dynamics
Direct
  0.0825143391055931  0.0048868530501878  0.0030792043731651   T   T   T
  0.9823148941339923  0.0060851230880488  0.4615282895598725   T   T   T
  0.9902234799020846  0.4764547083461750  0.0025813913257764   T   T   T
  0.0038142156310457  0.5082295361282902  0.5092918081573856   T   T   T
  0.5070814610263596  0.0092018517119783  0.0084075844307776   T   T   T
  0.4880471942079012  0.9692623008388850  0.5049583728282343   T   T   T
  0.4960154895262079  0.5028928336227878  0.9662068858435831   T   T   T
  0.5825225104873297  0.5041632420429778  0.5041306682603803   T   T   T
  0.2514011428081417  0.2595290209058021  0.2577257589806550   T   T   T
  0.2541441942183127  0.2565408059078464  0.7474532542887431   T   T   T
  0.2541602076900062  0.7490415871401908  0.2572074227643384   T   T   T
  0.2488838114389225  0.7528156037506264  0.7528737887482677   T   T   T
  0.7471549789504550  0.2525743451570150  0.2513379649712419   T   T   T
  0.7551022024919192  0.7574214140618096  0.7565703280168776   T   T   T
  0.7547356236979752  0.2474811675505535  0.7551903033138245   T   T   T
  0.7536609217071870  0.7553941028497348  0.2466734260208128   T   T   T
  0.2881386543520534  0.2586191371350708  0.0038261008372800   T   T   T
  0.2984760474306398  0.7548581454201724  0.0057496273618156   T   T   T
  0.1902374634203809  0.2431778732703194  0.5038068289551134   T   T   T
  0.1955568155910044  0.7723117196999567  0.5055053181584768   T   T   T
  0.7024183147185212  0.2630531802296545  0.0023508604280451   T   T   T
  0.6963210418600241  0.7499576187625081  0.0103629907612159   T   T   T
  0.7943222297546342  0.2611005263918855  0.5073534144599918   T   T   T
  0.7899531158408308  0.7539776358238797  0.5064824209548391   T   T   T
  0.2889284522714135  0.0054715309716826  0.2517766898185272   T   T   T
  0.1890275025942216  0.5055598739948408  0.2504833200361887   T   T   T
  0.2973375634232340  0.0046491749040101  0.7619319255950217   T   T   T
  0.1991170012639856  0.5043123710989335  0.7627804399774618   T   T   T
  0.7028635898861353  0.0046771751076449  0.2694473877461903   T   T   T
  0.7933618660365127  0.5096883419530656  0.2557263477651261   T   T   T
  0.6997946001845818  0.0087088242853852  0.7448854357561743   T   T   T
  0.7837654864646737  0.5043722329969782  0.7590017405070881   T   T   T
  0.9965074741892508  0.2147280217985568  0.2111114570184753   T   T   T
  0.9886318127671743  0.7983367847965752  0.2141427359620849   T   T   T
  0.9894905587365344  0.2184238346916416  0.7988761588864364   T   T   T
  0.9989709463101022  0.7873519753032028  0.8051498190950994   T   T   T
  0.4974510256773215  0.2985250952900600  0.2929211625295167   T   T   T
  0.4943182271444755  0.7187854642372358  0.3023189067369501   T   T   T
  0.4949006022931499  0.2974958015190410  0.7151636621641728   T   T   T
  0.4983329407656925  0.7148831641647888  0.7136287966047874   T   T   T
 
  0.00000000E+00  0.00000000E+00  0.00000000E+00
  0.00000000E+00  0.00000000E+00  0.00000000E+00
  0.00000000E+00  0.00000000E+00  0.00000000E+00
  0.00000000E+00  0.00000000E+00  0.00000000E+00
  0.00000000E+00  0.00000000E+00  0.00000000E+00
  0.00000000E+00  0.00000000E+00  0.00000000E+00
  0.00000000E+00  0.00000000E+00  0.00000000E+00
  0.00000000E+00  0.00000000E+00  0.00000000E+00
  0.00000000E+00  0.00000000E+00  0.00000000E+00
  0.00000000E+00  0.00000000E+00  0.00000000E+00
  0.00000000E+00  0.00000000E+00  0.00000000E+00
  0.00000000E+00  0.00000000E+00  0.00000000E+00
  0.00000000E+00  0.00000000E+00  0.00000000E+00
  0.00000000E+00  0.00000000E+00  0.00000000E+00
  0.00000000E+00  0.00000000E+00  0.00000000E+00
  0.00000000E+00  0.00000000E+00  0.00000000E+00
  0.00000000E+00  0.00000000E+00  0.00000000E+00
  0.00000000E+00  0.00000000E+00  0.00000000E+00
  0.00000000E+00  0.00000000E+00  0.00000000E+00
  0.00000000E+00  0.00000000E+00  0.00000000E+00
  0.00000000E+00  0.00000000E+00  0.00000000E+00
  0.00000000E+00  0.00000000E+00  0.00000000E+00
  0.00000000E+00  0.00000000E+00  0.00000000E+00
  0.00000000E+00  0.00000000E+00  0.00000000E+00
  0.00000000E+00  0.00000000E+00  0.00000000E+00
  0.00000000E+00  0.00000000E+00  0.00000000E+00
  0.00000000E+00  0.00000000E+00  0.00000000E+00
  0.00000000E+00  0.00000000E+00  0.00000000E+00
  0.00000000E+00  0.00000000E+00  0.00000000E+00
  0.00000000E+00  0.00000000E+00  0.00000000E+00
  0.00000000E+00  0.00000000E+00  0.00000000E+00
  0.00000000E+00  0.00000000E+00  0.00000000E+00
  0.00000000E+00  0.00000000E+00  0.00000000E+00
  0.00000000E+00  0.00000000E+00  0.00000000E+00
  0.00000000E+00  0.00000000E+00  0.00000000E+00
  0.00000000E+00  0.00000000E+00  0.00000000E+00
  0.00000000E+00  0.00000000E+00  0.00000000E+00
  0.00000000E+00  0.00000000E+00  0.00000000E+00
  0.00000000E+00  0.00000000E+00  0.00000000E+00
  0.00000000E+00  0.00000000E+00  0.00000000E+00
