MAPbI3-cubic                            
   1.00000000000000     
    12.6669895111317885    0.0000000000000000    0.0000000000000000
     0.0000000000000000   12.6703174651365540    0.0000000000000000
     0.0000000000000000    0.0000000000000000   12.6692153003061758
   Cs   Pb   Sn   I 
     8     4     4    24
Selective dynamics
Direct
  0.0803382215134718  0.0046513101317132  0.0033502411929831   T   T   T
  0.9815289607062994  0.0061505375980673  0.4634910931986624   T   T   T
  0.9884227218367201  0.4754451657727969  0.0040041362770964   T   T   T
  0.0035604161846479  0.5089626680235924  0.5100193602687710   T   T   T
  0.5079941518028832  0.0074550331672683  0.0070223133656455   T   T   T
  0.4907873688750257  0.9749358291170154  0.5042909166414091   T   T   T
  0.4967160728805382  0.5035432818485788  0.9660016838746870   T   T   T
  0.5793277638036685  0.5044081918715619  0.5039305588373395   T   T   T
  0.2513453793462403  0.2589758835531129  0.2575205707140569   T   T   T
  0.2519465692666785  0.2555262482541565  0.7479164465506045   T   T   T
  0.2521949310789822  0.7494092994736405  0.2563600412043598   T   T   T
  0.2527225646005746  0.7517603290375590  0.7512233813796456   T   T   T
  0.7442482875281726  0.2486150166697669  0.2467103263319075   T   T   T
  0.7537818174345219  0.2444599749235010  0.7496504714992227   T   T   T
  0.7523615439626070  0.7507392438596199  0.2441300011084877   T   T   T
  0.7610147548361326  0.7538548755175754  0.7538063512497573   T   T   T
  0.2890400650347686  0.2579077210795262  0.0038555674238623   T   T   T
  0.2986464803738258  0.7549320588494908  0.0049162687780608   T   T   T
  0.1887255101510803  0.2436820539463582  0.5036675302513984   T   T   T
  0.1947921048474299  0.7715148855231391  0.5047772058761382   T   T   T
  0.7042220242801775  0.2627953304449093  0.0102392051245843   T   T   T
  0.7006177498990098  0.7487296895821061  0.0109995909984590   T   T   T
  0.7916708425248302  0.2609712126023354  0.5111293142537789   T   T   T
  0.7891263702454552  0.7549418123524632  0.5128231675457116   T   T   T
  0.2886780948257908  0.0051966421719101  0.2514840695378595   T   T   T
  0.1886309010281053  0.5050818095751879  0.2502852779410389   T   T   T
  0.2979855439456145  0.0044013427121570  0.7609493034203680   T   T   T
  0.1989272996676661  0.5041302794611013  0.7639491684708091   T   T   T
  0.7056831124069731  0.0113246949024415  0.2663624469612103   T   T   T
  0.7900437174031225  0.5118132036680478  0.2571134244856950   T   T   T
  0.7047832400524996  0.0094220860786578  0.7449042071483802   T   T   T
  0.7827491662231765  0.5105649806448653  0.7599219091825731   T   T   T
  0.9901747119166373  0.2161015176807908  0.2123559146940153   T   T   T
  0.9914567375738983  0.7970366786883218  0.2145797959348457   T   T   T
  0.9922042983079322  0.2186239112199928  0.7983431619059687   T   T   T
  0.9948957664123910  0.7877209609951450  0.8009722248020879   T   T   T
  0.4965087170346791  0.2941934834924851  0.2950274404924116   T   T   T
  0.4967550052019902  0.7219210763134427  0.3019838734368037   T   T   T
  0.4971424296809275  0.2964290753611678  0.7164489732275996   T   T   T
  0.4982485853048431  0.7166706038344230  0.7134830644117187   T   T   T
 
  0.00000000E+00  0.00000000E+00  0.00000000E+00
  0.00000000E+00  0.00000000E+00  0.00000000E+00
  0.00000000E+00  0.00000000E+00  0.00000000E+00
  0.00000000E+00  0.00000000E+00  0.00000000E+00
  0.00000000E+00  0.00000000E+00  0.00000000E+00
  0.00000000E+00  0.00000000E+00  0.00000000E+00
  0.00000000E+00  0.00000000E+00  0.00000000E+00
  0.00000000E+00  0.00000000E+00  0.00000000E+00
  0.00000000E+00  0.00000000E+00  0.00000000E+00
  0.00000000E+00  0.00000000E+00  0.00000000E+00
  0.00000000E+00  0.00000000E+00  0.00000000E+00
  0.00000000E+00  0.00000000E+00  0.00000000E+00
  0.00000000E+00  0.00000000E+00  0.00000000E+00
  0.00000000E+00  0.00000000E+00  0.00000000E+00
  0.00000000E+00  0.00000000E+00  0.00000000E+00
  0.00000000E+00  0.00000000E+00  0.00000000E+00
  0.00000000E+00  0.00000000E+00  0.00000000E+00
  0.00000000E+00  0.00000000E+00  0.00000000E+00
  0.00000000E+00  0.00000000E+00  0.00000000E+00
  0.00000000E+00  0.00000000E+00  0.00000000E+00
  0.00000000E+00  0.00000000E+00  0.00000000E+00
  0.00000000E+00  0.00000000E+00  0.00000000E+00
  0.00000000E+00  0.00000000E+00  0.00000000E+00
  0.00000000E+00  0.00000000E+00  0.00000000E+00
  0.00000000E+00  0.00000000E+00  0.00000000E+00
  0.00000000E+00  0.00000000E+00  0.00000000E+00
  0.00000000E+00  0.00000000E+00  0.00000000E+00
  0.00000000E+00  0.00000000E+00  0.00000000E+00
  0.00000000E+00  0.00000000E+00  0.00000000E+00
  0.00000000E+00  0.00000000E+00  0.00000000E+00
  0.00000000E+00  0.00000000E+00  0.00000000E+00
  0.00000000E+00  0.00000000E+00  0.00000000E+00
  0.00000000E+00  0.00000000E+00  0.00000000E+00
  0.00000000E+00  0.00000000E+00  0.00000000E+00
  0.00000000E+00  0.00000000E+00  0.00000000E+00
  0.00000000E+00  0.00000000E+00  0.00000000E+00
  0.00000000E+00  0.00000000E+00  0.00000000E+00
  0.00000000E+00  0.00000000E+00  0.00000000E+00
  0.00000000E+00  0.00000000E+00  0.00000000E+00
  0.00000000E+00  0.00000000E+00  0.00000000E+00
