MAPbI3-cubic                            
   1.00000000000000     
    12.6954465593846919    0.0000000000000000    0.0000000000000000
     0.0000000000000000   12.6943750254011842    0.0000000000000000
     0.0000000000000000    0.0000000000000000   12.6954008488707117
   Cs   Pb   Sn   I 
     8     5     3    24
Selective dynamics
Direct
  0.0824807487094574  0.0029127829279787  0.0016756301424721   T   T   T
  0.9837189142884668  0.0048297071305186  0.4649948063191616   T   T   T
  0.9918102127814805  0.4785380584984935  0.0027627211988062   T   T   T
  0.0039918501794105  0.5093722879154896  0.5105679192720345   T   T   T
  0.5053591534752968  0.0078169248271109  0.0065765041522781   T   T   T
  0.4878266080990983  0.9720767437085698  0.5047405628026311   T   T   T
  0.4949504850547228  0.5038963477220122  0.9667494156946503   T   T   T
  0.5824684983646620  0.5038563498649893  0.5037297350132306   T   T   T
  0.2551481641305244  0.2600612924315939  0.2588548395607688   T   T   T
  0.2509636330150542  0.2543504652493098  0.7488810260109062   T   T   T
  0.2509703899492592  0.7500775013284056  0.2541450097318858   T   T   T
  0.7524299765695091  0.2500958835238123  0.7540685923912562   T   T   T
  0.7506388986756107  0.7553766941110638  0.2506727526722585   T   T   T
  0.7574032583047057  0.7602098353582250  0.7609986414197749   T   T   T
  0.2533181181976190  0.7501172038504720  0.7491098077047198   T   T   T
  0.7509795744711099  0.2524056014659450  0.2498339439608870   T   T   T
  0.2903542866635078  0.2584559744752397  0.0044222286824223   T   T   T
  0.2934611722700922  0.7539683252945153  0.0039531816050058   T   T   T
  0.1897148308480610  0.2435111531308891  0.5042677761865093   T   T   T
  0.2006008027789790  0.7700772911621740  0.5086482264587886   T   T   T
  0.7014916339771560  0.2629135716180286  0.0088148555983452   T   T   T
  0.6955120280848490  0.7505622193876107  0.0024936950242136   T   T   T
  0.7957047008134666  0.2610344865452632  0.5043803252102208   T   T   T
  0.7880949981001493  0.7534372715087088  0.5073503579371419   T   T   T
  0.2905568641882681  0.0054909099948333  0.2515927732246155   T   T   T
  0.1891311615048821  0.5054374417643928  0.2507545019583475   T   T   T
  0.2938023988054326  0.0035364829952584  0.7603032766138469   T   T   T
  0.2037904934674373  0.5081846159396548  0.7619434808077798   T   T   T
  0.7031367687639047  0.0090045004773316  0.2688083338720801   T   T   T
  0.7940615654098124  0.5043225564022578  0.2555178679530812   T   T   T
  0.6995731250185813  0.0015530896380724  0.7453956021742769   T   T   T
  0.7820705372650991  0.5064716305823183  0.7596995570464813   T   T   T
  0.9899947657685004  0.2140297693328606  0.2109103959558567   T   T   T
  0.9980675706680131  0.8007022778548247  0.2168805774721605   T   T   T
  0.9988840213810803  0.2218582872372394  0.8031475172432749   T   T   T
  0.9877931586169879  0.7881851005996054  0.7985997664598301   T   T   T
  0.4966380324267732  0.2963623155759336  0.2949806727957309   T   T   T
  0.4982813273325277  0.7186044087441772  0.3006591224811288   T   T   T
  0.4989193329070147  0.2958821727303089  0.7152299719465915   T   T   T
  0.4859059386733833  0.7154204670944964  0.7128840272445487   T   T   T
 
  0.00000000E+00  0.00000000E+00  0.00000000E+00
  0.00000000E+00  0.00000000E+00  0.00000000E+00
  0.00000000E+00  0.00000000E+00  0.00000000E+00
  0.00000000E+00  0.00000000E+00  0.00000000E+00
  0.00000000E+00  0.00000000E+00  0.00000000E+00
  0.00000000E+00  0.00000000E+00  0.00000000E+00
  0.00000000E+00  0.00000000E+00  0.00000000E+00
  0.00000000E+00  0.00000000E+00  0.00000000E+00
  0.00000000E+00  0.00000000E+00  0.00000000E+00
  0.00000000E+00  0.00000000E+00  0.00000000E+00
  0.00000000E+00  0.00000000E+00  0.00000000E+00
  0.00000000E+00  0.00000000E+00  0.00000000E+00
  0.00000000E+00  0.00000000E+00  0.00000000E+00
  0.00000000E+00  0.00000000E+00  0.00000000E+00
  0.00000000E+00  0.00000000E+00  0.00000000E+00
  0.00000000E+00  0.00000000E+00  0.00000000E+00
  0.00000000E+00  0.00000000E+00  0.00000000E+00
  0.00000000E+00  0.00000000E+00  0.00000000E+00
  0.00000000E+00  0.00000000E+00  0.00000000E+00
  0.00000000E+00  0.00000000E+00  0.00000000E+00
  0.00000000E+00  0.00000000E+00  0.00000000E+00
  0.00000000E+00  0.00000000E+00  0.00000000E+00
  0.00000000E+00  0.00000000E+00  0.00000000E+00
  0.00000000E+00  0.00000000E+00  0.00000000E+00
  0.00000000E+00  0.00000000E+00  0.00000000E+00
  0.00000000E+00  0.00000000E+00  0.00000000E+00
  0.00000000E+00  0.00000000E+00  0.00000000E+00
  0.00000000E+00  0.00000000E+00  0.00000000E+00
  0.00000000E+00  0.00000000E+00  0.00000000E+00
  0.00000000E+00  0.00000000E+00  0.00000000E+00
  0.00000000E+00  0.00000000E+00  0.00000000E+00
  0.00000000E+00  0.00000000E+00  0.00000000E+00
  0.00000000E+00  0.00000000E+00  0.00000000E+00
  0.00000000E+00  0.00000000E+00  0.00000000E+00
  0.00000000E+00  0.00000000E+00  0.00000000E+00
  0.00000000E+00  0.00000000E+00  0.00000000E+00
  0.00000000E+00  0.00000000E+00  0.00000000E+00
  0.00000000E+00  0.00000000E+00  0.00000000E+00
  0.00000000E+00  0.00000000E+00  0.00000000E+00
  0.00000000E+00  0.00000000E+00  0.00000000E+00
